31
lumiflavin (from xTB-optimised lumiflavin+methylamine complex, d(N5-H)=2.80 A)
C      0.942460    -0.120400     0.082490
C      2.443940    -0.034960     0.080450
C      3.210880    -1.210170     0.074980
C      4.611930    -1.172760     0.069660
N      5.293770    -2.406110     0.065680
C      6.594710    -2.396400     0.060870
C      7.356020    -3.696620     0.057110
O      6.805910    -4.785210     0.057280
N      8.706970    -3.535140     0.054880
C      9.380700    -2.349110     0.053320
O     10.607030    -2.378860     0.050870
N      8.690080    -1.173300     0.055380
C      7.393280    -1.112500     0.058910
N      6.695830     0.085910     0.061530
C      7.386480     1.369030     0.059470
C      5.284520     0.069350     0.068380
C      4.506640     1.239600     0.074950
C      3.101710     1.205140     0.082510
C      2.338670     2.502270     0.094480
H      0.594440    -1.158260     0.080590
H      0.534990     0.366850    -0.809390
H      0.536570     0.363490     0.976820
H      2.720430    -2.182440     0.074940
H      9.277630    -4.366760     0.052610
H      8.475770     1.261540     0.055160
H      7.133220     1.947300     0.955150
H      7.126090     1.948130    -0.833650
H      4.984140     2.215290     0.074800
H      3.013260     3.365280     0.094320
H      1.719750     2.570540     0.994450
H      1.706090     2.580210    -0.795030
