7
methylamine, GFN2-xTB optimised (calibration_results/lambda/opt_methylamine_q+0)
C            7.22254152066290        0.08424534485699        3.85237243458586
N            7.09222070509854        0.08376472376332        5.30884655678332
H            6.22195293624631        0.08420935113171        3.41222815746045
H            7.53009103418046        0.90027906510016        5.71625968656588
H            7.52974919709871       -0.73319099070211        5.71567225651832
H            7.75066784584242        0.96661736586850        3.48781315410203
H            7.75080725332683       -0.79785824124454        3.48724881683063
