      -----------------------------------------------------------      
     |                   =====================                   |     
     |                           x T B                           |     
     |                   =====================                   |     
     |                         S. Grimme                         |     
     |          Mulliken Center for Theoretical Chemistry        |     
     |                    University of Bonn                     |     
      -----------------------------------------------------------      

   * xtb version 6.7.1 (edcfbbe) compiled by 'runner@Mac-1732539442253.local' on 2024-11-25

   xtb is free software: you can redistribute it and/or modify it under
   the terms of the GNU Lesser General Public License as published by
   the Free Software Foundation, either version 3 of the License, or
   (at your option) any later version.
   
   xtb is distributed in the hope that it will be useful,
   but WITHOUT ANY WARRANTY; without even the implied warranty of
   MERCHANTABILITY or FITNESS FOR A PARTICULAR PURPOSE.  See the
   GNU Lesser General Public License for more details.
   
   Cite this work as:
   * C. Bannwarth, E. Caldeweyher, S. Ehlert, A. Hansen, P. Pracht,
     J. Seibert, S. Spicher, S. Grimme, WIREs Comput. Mol. Sci., 2020, 11,
     e01493. DOI: 10.1002/wcms.1493
   
   for GFN2-xTB:
   * C. Bannwarth, S. Ehlert and S. Grimme., J. Chem. Theory Comput., 2019,
     15, 1652-1671. DOI: 10.1021/acs.jctc.8b01176
   for GFN1-xTB:
   * S. Grimme, C. Bannwarth, P. Shushkov, J. Chem. Theory Comput., 2017,
     13, 1989-2009. DOI: 10.1021/acs.jctc.7b00118
   for GFN0-xTB:
   * P. Pracht, E. Caldeweyher, S. Ehlert, S. Grimme, ChemRxiv, 2019, preprint.
     DOI: 10.26434/chemrxiv.8326202.v1
   for GFN-FF:
   * S. Spicher and S. Grimme, Angew. Chem. Int. Ed., 2020, 59, 15665-15673.
     DOI: 10.1002/anie.202004239
   
   for ALPB and GBSA implicit solvation:
   * S. Ehlert, M. Stahn, S. Spicher, S. Grimme, J. Chem. Theory Comput.,
     2021, 17, 4250-4261. DOI: 10.1021/acs.jctc.1c00471
   
   for ddCOSMO and CPCM-X implicit solvation:
   * M. Stahn, S. Ehlert, S. Grimme, J. Phys. Chem. A,
     2023, XX, XXXX-XXXX. DOI: 10.1021/acs.jpca.3c04382
   
   for DFT-D4:
   * E. Caldeweyher, C. Bannwarth and S. Grimme, J. Chem. Phys., 2017,
     147, 034112. DOI: 10.1063/1.4993215
   * E. Caldeweyher, S. Ehlert, A. Hansen, H. Neugebauer, S. Spicher,
     C. Bannwarth and S. Grimme, J. Chem. Phys., 2019, 150, 154122.
     DOI: 10.1063/1.5090222
   * E. Caldeweyher, J.-M. Mewes, S. Ehlert and S. Grimme, Phys. Chem. Chem. Phys.
     2020, 22, 8499-8512. DOI: 10.1039/D0CP00502A
   
   for sTDA-xTB:
   * S. Grimme and C. Bannwarth, J. Chem. Phys., 2016, 145, 054103.
     DOI: 10.1063/1.4959605
   
   in the mass-spec context:
   * V. Asgeirsson, C. Bauer and S. Grimme, Chem. Sci., 2017, 8, 4879.
     DOI: 10.1039/c7sc00601b
   * J. Koopman and S. Grimme, ACS Omega 2019, 4, 12, 15120-15133.
     DOI: 10.1021/acsomega.9b02011
   
   for metadynamics refer to:
   * S. Grimme, J. Chem. Theory Comput., 2019, 155, 2847-2862
     DOI: 10.1021/acs.jctc.9b00143
   
   for SPH calculations refer to:
   * S. Spicher and S. Grimme, J. Chem. Theory Comput., 2021, 17, 1701-1714
     DOI: 10.1021/acs.jctc.0c01306
   
   for ONIOM refer to:
   * C. Plett, A. Katbashev, S. Ehlert, S. Grimme, M. Bursch,
     Phys. Chem. Chem. Phys., 2023, 25, 17860-17868. DOI: 10.1039/D3CP02178E
   
   for DIPRO refer to:
   * J. Kohn, N. Gildemeister, S. Grimme, D. Fazzi, A. Hansen,
     J. Chem. Phys., 2023, just accepted.
   
   for PTB refer to:
   * S. Grimme, M. Mueller, A. Hansen, J. Chem. Phys., 2023, 158, 124111.
     DOI: 10.1063/5.0137838
   
   with help from (in alphabetical order)
   P. Atkinson, C. Bannwarth, F. Bohle, G. Brandenburg, E. Caldeweyher
   M. Checinski, S. Dohm, S. Ehlert, S. Ehrlich, I. Gerasimov, C. Hölzer
   A. Katbashev, J. Kohn, J. Koopman, C. Lavigne, S. Lehtola, F. März, M. Müller,
   F. Musil, H. Neugebauer, J. Pisarek, C. Plett, P. Pracht, F. Pultar,
   J. Seibert, P. Shushkov, S. Spicher, M. Stahn, M. Steiner, T. Strunk,
   J. Stückrath, T. Rose, and J. Unsleber
   
 * started run on 2026/09/29 at 15:12:05.964     
   ID    Z sym.   atoms
    1    6 C      1-4, 6, 7, 10, 13, 15-19
    2    7 N      5, 9, 12, 14
    3    8 O      8, 11
    4    1 H      20-31

           -------------------------------------------------
          |                Calculation Setup                |
           -------------------------------------------------

          program call               : xtb in.xyz --opt tight --input xcontrol --chrg 0 --uhf 0
          coordinate file            : in.xyz
          omp threads                :                     4


           -------------------------------------------------
          |                 G F N 2 - x T B                 |
           -------------------------------------------------

        Reference                      10.1021/acs.jctc.8b01176
      * Hamiltonian:
        H0-scaling (s, p, d)           1.850000    2.230000    2.230000
        zeta-weighting                 0.500000
      * Dispersion:
        s8                             2.700000
        a1                             0.520000
        a2                             5.000000
        s9                             5.000000
      * Repulsion:
        kExp                           1.500000    1.000000
        rExp                           1.000000
      * Coulomb:
        alpha                          2.000000
        third order                    shell-resolved
        anisotropic                    true
        a3                             3.000000
        a5                             4.000000
        cn-shift                       1.200000
        cn-exp                         4.000000
        max-rad                        5.000000

q/qsh data taken from xtbrestart
CAMM data taken from xtbrestart

          ...................................................
          :                      SETUP                      :
          :.................................................:
          :  # basis functions                  88          :
          :  # atomic orbitals                  88          :
          :  # shells                           50          :
          :  # electrons                        96          :
          :  max. iterations                   250          :
          :  Hamiltonian                  GFN2-xTB          :
          :  restarted?                       true          :
          :  GBSA solvation                  false          :
          :  PC potential                    false          :
          :  electronic temp.          300.0000000     K    :
          :  accuracy                    1.0000000          :
          :  -> integral cutoff          0.2500000E+02      :
          :  -> integral neglect         0.1000000E-07      :
          :  -> SCF convergence          0.1000000E-05 Eh   :
          :  -> wf. convergence          0.1000000E-03 e    :
          :  Broyden damping             0.4000000          :
          :  net charge                          0          :
          :  unpaired electrons                  0          :
          ...................................................

 iter      E             dE          RMSdq      gap      omega  full diag
   1    -54.5424962 -0.545425E+02  0.453E-01    1.32       0.0  T
   2    -54.5441996 -0.170343E-02  0.307E-01    1.42       1.0  T
   3    -54.5449965 -0.796900E-03  0.175E-01    1.37       1.0  T
   4    -54.5450754 -0.789441E-04  0.649E-02    1.37       1.0  T
   5    -54.5451631 -0.877015E-04  0.174E-02    1.37       1.0  T
   6    -54.5451681 -0.492941E-05  0.584E-03    1.37       3.1  T
   7    -54.5451682 -0.181764E-06  0.352E-03    1.37       5.1  T
   8    -54.5451684 -0.160883E-06  0.977E-04    1.37      18.4  T
   9    -54.5451684 -0.107814E-07  0.436E-04    1.37      41.2  T

   *** convergence criteria satisfied after 9 iterations ***

         #    Occupation            Energy/Eh            Energy/eV
      -------------------------------------------------------------
         1        2.0000           -0.7177084             -19.5298
       ...           ...                  ...                  ...
        42        2.0000           -0.4355245             -11.8512
        43        2.0000           -0.4278437             -11.6422
        44        2.0000           -0.4239873             -11.5373
        45        2.0000           -0.4220387             -11.4843
        46        2.0000           -0.4044822             -11.0065
        47        2.0000           -0.4002103             -10.8903
        48        2.0000           -0.3786441             -10.3034 (HOMO)
        49                         -0.3283803              -8.9357 (LUMO)
        50                         -0.2691679              -7.3244
        51                         -0.2494432              -6.7877
        52                         -0.2294896              -6.2447
        53                         -0.2086490              -5.6776
       ...                                ...                  ...
        88                          0.6725010              18.2997
      -------------------------------------------------------------
                  HL-Gap            0.0502638 Eh            1.3677 eV
             Fermi-level           -0.3535122 Eh           -9.6196 eV

 SCC (total)                   0 d,  0 h,  0 min,  0.057 sec
 SCC setup                      ...        0 min,  0.001 sec (  1.096%)
 Dispersion                     ...        0 min,  0.000 sec (  0.589%)
 classical contributions        ...        0 min,  0.000 sec (  0.229%)
 integral evaluation            ...        0 min,  0.003 sec (  4.966%)
 iterations                     ...        0 min,  0.044 sec ( 77.128%)
 molecular gradient             ...        0 min,  0.009 sec ( 15.236%)
 printout                       ...        0 min,  0.000 sec (  0.710%)

         :::::::::::::::::::::::::::::::::::::::::::::::::::::
         ::                     SUMMARY                     ::
         :::::::::::::::::::::::::::::::::::::::::::::::::::::
         :: total energy             -53.841650207556 Eh    ::
         :: gradient norm              0.094091340429 Eh/a0 ::
         :: HOMO-LUMO gap              1.367747971332 eV    ::
         ::.................................................::
         :: SCC energy               -54.545243498417 Eh    ::
         :: -> isotropic ES            0.090952351357 Eh    ::
         :: -> anisotropic ES          0.005656764454 Eh    ::
         :: -> anisotropic XC          0.026107152776 Eh    ::
         :: -> dispersion             -0.033513039111 Eh    ::
         :: repulsion energy           0.703593290861 Eh    ::
         :: add. restraining           0.000000000000 Eh    ::
         :: total charge               0.000000000000 e     ::
         :::::::::::::::::::::::::::::::::::::::::::::::::::::

      ----------------------------------------------------------- 
     |                       L-ANC optimizer                     |
      ----------------------------------------------------------- 
          low memory version by Sebastian Ehlert

          ...................................................
          :                      SETUP                      :
          :.................................................:
          :   energy convergence        0.1000000E-05 Eh    :
          :   grad. convergence         0.8000000E-03 Eh/a0 :
          :   optimization log               true           :
          :   writing optlog all                1     steps :
          :   Hessian reset                    20     steps :
          :   maximium step len.        1.0000000     a0    :
          :   LBFGS images                     20           :
          ...................................................
 * calculating model hessian...
Using Lindh-Hessian (1995)
 Shifting diagonal of input Hessian by    1.0000000000000000E-002
 Lowest  eigenvalues of input Hessian
    0.000000    0.000000    0.000000    0.000000    0.000000    0.000000
    0.010972    0.011484    0.013520    0.015170    0.016275    0.017436
    0.018079    0.018999    0.019703    0.020647    0.021542    0.027822
 Highest eigenvalues
    1.963151    1.991689    2.057903    2.149663    2.382632    2.522781


........................................................................
.............................. CYCLE    1 ..............................
........................................................................

 iter      E             dE          RMSdq      gap      omega  full diag
   1    -54.5878091 -0.545878E+02  0.226E-01    1.46       0.0  T
   2    -54.5881920 -0.382846E-03  0.154E-01    1.41       1.0  T
   3    -54.5882943 -0.102285E-03  0.856E-02    1.44       1.0  T
   4    -54.5883070 -0.126850E-04  0.324E-02    1.44       1.0  T
   5    -54.5883337 -0.267555E-04  0.736E-03    1.43       2.4  T
   6    -54.5883344 -0.701758E-06  0.289E-03    1.44       6.2  T
   7    -54.5883344 -0.238126E-07  0.164E-03    1.44      10.9  T
   8    -54.5883345 -0.356160E-07  0.442E-04    1.44      40.6  T
   9    -54.5883345 -0.267050E-08  0.206E-04    1.44      87.3  T
     SCC iter.                  ...        0 min,  0.042 sec
     gradient                   ...        0 min,  0.012 sec
 * total energy  :   -53.8522782 Eh     change       -0.1062802E-01 Eh
   gradient norm :     0.0476442 Eh/a0  converged?    E=F G=F D=F
   step length   :     0.3534382 a0

........................................................................
.............................. CYCLE    2 ..............................
........................................................................

 iter      E             dE          RMSdq      gap      omega  full diag
   1    -54.6167987 -0.546168E+02  0.223E-01    1.50       0.0  T
   2    -54.6172182 -0.419561E-03  0.148E-01    1.45       1.0  T
   3    -54.6173924 -0.174138E-03  0.851E-02    1.48       1.0  T
   4    -54.6174119 -0.195074E-04  0.287E-02    1.48       1.0  T
   5    -54.6174306 -0.187556E-04  0.769E-03    1.47       2.3  T
   6    -54.6174315 -0.872636E-06  0.273E-03    1.47       6.6  T
   7    -54.6174315 -0.426611E-07  0.156E-03    1.47      11.5  T
   8    -54.6174316 -0.302849E-07  0.459E-04    1.47      39.2  T
   9    -54.6174316 -0.300616E-08  0.192E-04    1.47      93.4  T
     SCC iter.                  ...        0 min,  0.052 sec
     gradient                   ...        0 min,  0.009 sec
 * total energy  :   -53.8559486 Eh     change       -0.3670419E-02 Eh
   gradient norm :     0.0176135 Eh/a0  converged?    E=F G=F D=F
   step length   :     0.4050131 a0

........................................................................
.............................. CYCLE    3 ..............................
........................................................................

 iter      E             dE          RMSdq      gap      omega  full diag
   1    -54.6146462 -0.546146E+02  0.352E-02    1.47       0.0  T
   2    -54.6146509 -0.470053E-05  0.203E-02    1.47       1.0  T
   3    -54.6146511 -0.156913E-06  0.141E-02    1.47       1.3  T
   4    -54.6146543 -0.322734E-05  0.234E-03    1.47       7.7  T
   5    -54.6146544 -0.675084E-07  0.944E-04    1.47      19.0  T
   6    -54.6146544 -0.101110E-07  0.483E-04    1.47      37.2  T
     SCC iter.                  ...        0 min,  0.024 sec
     gradient                   ...        0 min,  0.008 sec
 * total energy  :   -53.8562329 Eh     change       -0.2842190E-03 Eh
   gradient norm :     0.0086103 Eh/a0  converged?    E=F G=F D=F
   step length   :     0.0799892 a0

........................................................................
.............................. CYCLE    4 ..............................
........................................................................

 iter      E             dE          RMSdq      gap      omega  full diag
   1    -54.6119295 -0.546119E+02  0.322E-02    1.46       0.0  T
   2    -54.6119330 -0.346896E-05  0.184E-02    1.46       1.0  T
   3    -54.6119325  0.480743E-06  0.127E-02    1.46       1.4  T
   4    -54.6119352 -0.270153E-05  0.221E-03    1.46       8.1  T
   5    -54.6119353 -0.929915E-07  0.836E-04    1.46      21.5  T
   6    -54.6119353 -0.561463E-08  0.416E-04    1.46      43.1  T
     SCC iter.                  ...        0 min,  0.022 sec
     gradient                   ...        0 min,  0.010 sec
 * total energy  :   -53.8563332 Eh     change       -0.1003609E-03 Eh
   gradient norm :     0.0018430 Eh/a0  converged?    E=F G=F D=F
   step length   :     0.0818364 a0

........................................................................
.............................. CYCLE    5 ..............................
........................................................................

 iter      E             dE          RMSdq      gap      omega  full diag
   1    -54.6119357 -0.546119E+02  0.669E-03    1.46       0.0  T
   2    -54.6119357 -0.882845E-07  0.413E-03    1.46       4.4  T
   3    -54.6119357  0.208669E-07  0.157E-03    1.46      11.4  T
   4    -54.6119358 -0.402688E-07  0.376E-04    1.46      47.7  T
   5    -54.6119358 -0.387787E-08  0.128E-04    1.46     139.9  T
     SCC iter.                  ...        0 min,  0.022 sec
     gradient                   ...        0 min,  0.027 sec
 * total energy  :   -53.8563376 Eh     change       -0.4398924E-05 Eh
   gradient norm :     0.0006977 Eh/a0  converged?    E=F G=T D=F
   step length   :     0.0157904 a0

........................................................................
.............................. CYCLE    6 ..............................
........................................................................

 iter      E             dE          RMSdq      gap      omega  full diag
   1    -54.6121358 -0.546121E+02  0.244E-03    1.46       0.0  T
   2    -54.6121358 -0.130858E-07  0.134E-03    1.46      13.4  T
   3    -54.6121358  0.644359E-08  0.102E-03    1.46      17.6  T
   4    -54.6121358 -0.172735E-07  0.139E-04    1.46     129.0  T
   5    -54.6121358 -0.397826E-09  0.429E-05    1.46     418.2  T
     SCC iter.                  ...        0 min,  0.027 sec
     gradient                   ...        0 min,  0.010 sec
 * total energy  :   -53.8563381 Eh     change       -0.4850634E-06 Eh
   gradient norm :     0.0001929 Eh/a0  converged?    E=T G=T D=F
   step length   :     0.0050310 a0

   *** GEOMETRY OPTIMIZATION CONVERGED AFTER 6 CYCLES ***

------------------------------------------------------------------------
 total energy gain   :        -0.0146879 Eh       -9.2168 kcal/mol
 total RMSD          :         0.1479917 a0        0.0783 Å
 total power (kW/mol):        -6.4271785 (step) -121.4848 (real)
------------------------------------------------------------------------

 L-ANCopt (total)              0 d,  0 h,  0 min,  0.318 sec
 setup                          ...        0 min,  0.002 sec (  0.715%)
 model hessian                  ...        0 min,  0.002 sec (  0.730%)
 ANC generation                 ...        0 min,  0.000 sec (  0.152%)
 coordinate transformation      ...        0 min,  0.000 sec (  0.030%)
 Rational function              ...        0 min,  0.000 sec (  0.008%)
 singlepoint calculation        ...        0 min,  0.311 sec ( 97.947%)
 optimization log               ...        0 min,  0.001 sec (  0.315%)
 hessian update                 ...        0 min,  0.000 sec (  0.009%)

================
 final structure:
================
31
 xtb: 6.7.1 (edcfbbe)
C            0.96969899487771       -0.09827255654198        0.08472578710259
C            2.46459896127354       -0.05312582366274        0.08013309308855
C            3.19894343764856       -1.21422189818696        0.07407457201729
C            4.60112625813467       -1.19433761575610        0.06931981575753
N            5.26785412950396       -2.36809411563007        0.06486045084032
C            6.56006017336239       -2.34709511250504        0.06101812626913
C            7.31179274321978       -3.63136234633285        0.05698366281447
O            6.80249344142871       -4.72651138151453        0.05700115254638
N            8.66797608361121       -3.44674400030147        0.05362744732032
C            9.37922491709360       -2.22646859264157        0.05252335545802
O           10.58421372375458       -2.24726369404936        0.04920006676457
N            8.64562608504892       -1.08448612865009        0.05575481718963
C            7.34454826512035       -1.12813006921346        0.06010883288564
N            6.65267638291165        0.04874178496176        0.06384844738911
C            7.40041223476666        1.28700359304594        0.06149326225948
C            5.28286481160787        0.05098821593803        0.06961658934115
C            4.52380633658223        1.22380665382368        0.07621460090392
C            3.14340673506372        1.18643120686962        0.08195551766718
C            2.36623920957807        2.46267348662924        0.09068172801150
H            0.61987604974350       -1.12638039566598        0.08348514851297
H            0.56757323096168        0.40691244270541       -0.79247546714694
H            0.57280156643584        0.40313019238389        0.96642969252784
H            2.72260198430479       -2.18163691294896        0.07305216589536
H            9.24187695444569       -4.28343798060073        0.05117536270171
H            8.45544391117295        1.01934091260057        0.05599617834812
H            7.17171425566553        1.86836833777854        0.95493106912684
H            7.16263558874855        1.87012350706315       -0.82844005766921
H            5.01517132922064        2.18365268629306        0.07733635330000
H            3.02811690929953        3.32429205453787        0.08987707391493
H            1.72952058295911        2.51341050047650        0.97292463346362
H            1.71901661873946        2.51961576963787       -0.78344585656905

 Bond Distances (Angstroems)
 ---------------------------
C1-C2=1.4956         C1-H20=1.0860        C1-H21=1.0892        C1-H22=1.0892        C2-C1=1.4956         C2-C3=1.3738         
C2-C18=1.4133        C3-C2=1.3738         C3-C4=1.4023         C3-H23=1.0783        C4-C3=1.4023         C4-N5=1.3499         
C4-C16=1.4197        N5-C4=1.3499         N5-C6=1.2924         C6-N5=1.2924         C6-C7=1.4881         C6-C13=1.4496        
C7-C6=1.4881         C7-O8=1.2078         C7-N9=1.3687         O8-C7=1.2078         N9-C7=1.3687         N9-C10=1.4124        
N9-H24=1.0146        C10-N9=1.4124        C10-O11=1.2052       C10-N12=1.3573       O11-C10=1.2052       N12-C10=1.3573       
N12-C13=1.3018       C13-C6=1.4496        C13-N12=1.3018       C13-N14=1.3652       N14-C13=1.3652       N14-C15=1.4465       
N14-C16=1.3698       C15-N14=1.4465       C15-H25=1.0885       C15-H26=1.0902       C15-H27=1.0902       C16-C4=1.4197        
C16-N14=1.3698       C16-C17=1.3970       C17-C16=1.3970       C17-C18=1.3809       C17-H28=1.0783       C18-C2=1.4133        
C18-C17=1.3809       C18-C19=1.4943       C19-C18=1.4943       C19-H29=1.0865       C19-H30=1.0892       C19-H31=1.0891       
H20-C1=1.0860        H21-C1=1.0892        H22-C1=1.0892        H23-C3=1.0783        H24-N9=1.0146        H25-C15=1.0885       
H26-C15=1.0902       H27-C15=1.0902       H28-C17=1.0783       H29-C19=1.0865       H30-C19=1.0892       H31-C19=1.0891       
 C  H  Rav=1.0868 sigma=0.0042  Rmin=1.0783  Rmax=1.0902    11
 C  C  Rav=1.4315 sigma=0.0447  Rmin=1.3738  Rmax=1.4956    10
 N  H  Rav=1.0146 sigma=0.0000  Rmin=1.0146  Rmax=1.0146     1
 N  C  Rav=1.3627 sigma=0.0453  Rmin=1.2924  Rmax=1.4465     9
 O  C  Rav=1.2065 sigma=0.0013  Rmin=1.2052  Rmax=1.2078     2

 selected bond angles (degree)
 --------------------
H20-C1-C2=110.52               H21-C1-C2=110.64               H21-C1-H20=108.62              H22-C1-C2=110.66               
H22-C1-H20=108.62              H22-C1-H21=107.69              C3-C2-C1=120.58                C18-C2-C1=120.44               
C18-C2-C3=118.98               C4-C3-C2=121.50                H23-C3-C2=121.47               H23-C3-C4=117.03               
N5-C4-C3=118.79                C16-C4-C3=119.51               C16-C4-N5=121.70               C6-N5-C4=118.67                
C7-C6-N5=119.41                C13-C6-N5=123.70               C13-C6-C7=116.89               O8-C7-C6=124.72                
N9-C7-C6=112.59                N9-C7-O8=122.69                C10-N9-C7=127.99               H24-N9-C7=116.69               
H24-N9-C10=115.32              O11-C10-N9=119.25              N12-C10-N9=117.05              N12-C10-O11=123.71             

 selected dihedral angles (degree)
 ---------------------------------
C3-C2-C1-H20=  0.05           C3-C2-C1-H21=239.70           C3-C2-C1-H22=120.42           C18-C2-C1-H20=180.05          
C18-C2-C1-H21= 59.70          C18-C2-C1-H22=300.42          C4-C3-C2-C1=179.98            C4-C3-C2-C18=  0.00           
H23-C3-C2-C1=359.96           H23-C3-C2-C18=179.96          N5-C4-C3-C2=179.93            N5-C4-C3-H23=359.95           
C16-C4-C3-C2=359.95           C16-C4-C3-H23=179.96          C6-N5-C4-C3=180.03            C6-N5-C4-C16=  0.00           
C7-C6-N5-C4=179.96            C13-C6-N5-C4=359.95           O8-C7-C6-N5=  0.00            O8-C7-C6-C13=180.01           
N9-C7-C6-N5=180.02            N9-C7-C6-C13=  0.03           C10-N9-C7-C6=359.94           C10-N9-C7-O8=179.96           
H24-N9-C7-C6=179.97           H24-N9-C7-O8=  0.00           O11-C10-N9-C7=180.01          O11-C10-N9-H24=  0.00         
N12-C10-N9-C7=  0.03          N12-C10-N9-H24=180.00         
           -------------------------------------------------
          |                Final Singlepoint                |
           -------------------------------------------------

          ...................................................
          :                      SETUP                      :
          :.................................................:
          :  # basis functions                  88          :
          :  # atomic orbitals                  88          :
          :  # shells                           50          :
          :  # electrons                        96          :
          :  max. iterations                   250          :
          :  Hamiltonian                  GFN2-xTB          :
          :  restarted?                      false          :
          :  GBSA solvation                  false          :
          :  PC potential                    false          :
          :  electronic temp.          300.0000000     K    :
          :  accuracy                    1.0000000          :
          :  -> integral cutoff          0.2500000E+02      :
          :  -> integral neglect         0.1000000E-07      :
          :  -> SCF convergence          0.1000000E-05 Eh   :
          :  -> wf. convergence          0.1000000E-03 e    :
          :  Broyden damping             0.4000000          :
          :  net charge                          0          :
          :  unpaired electrons                  0          :
          ...................................................

 iter      E             dE          RMSdq      gap      omega  full diag
   1    -54.6121358 -0.546121E+02  0.228E-05    1.46       0.0  T
   2    -54.6121358 -0.225242E-11  0.138E-05    1.46    1298.6  T
   3    -54.6121358 -0.186873E-11  0.890E-06    1.46    2017.4  T

   *** convergence criteria satisfied after 3 iterations ***

         #    Occupation            Energy/Eh            Energy/eV
      -------------------------------------------------------------
         1        2.0000           -0.7191711             -19.5696
       ...           ...                  ...                  ...
        42        2.0000           -0.4312918             -11.7360
        43        2.0000           -0.4271224             -11.6226
        44        2.0000           -0.4270883             -11.6217
        45        2.0000           -0.4221936             -11.4885
        46        2.0000           -0.4016425             -10.9293
        47        2.0000           -0.3998576             -10.8807
        48        2.0000           -0.3809047             -10.3649 (HOMO)
        49                         -0.3271655              -8.9026 (LUMO)
        50                         -0.2678826              -7.2895
        51                         -0.2437045              -6.6315
        52                         -0.2237509              -6.0886
        53                         -0.2008215              -5.4646
       ...                                ...                  ...
        88                          0.7145158              19.4430
      -------------------------------------------------------------
                  HL-Gap            0.0537392 Eh            1.4623 eV
             Fermi-level           -0.3540351 Eh           -9.6338 eV

 SCC (total)                   0 d,  0 h,  0 min,  0.041 sec
 SCC setup                      ...        0 min,  0.007 sec ( 18.124%)
 Dispersion                     ...        0 min,  0.000 sec (  0.590%)
 classical contributions        ...        0 min,  0.000 sec (  0.600%)
 integral evaluation            ...        0 min,  0.003 sec (  7.409%)
 iterations                     ...        0 min,  0.014 sec ( 33.303%)
 molecular gradient             ...        0 min,  0.012 sec ( 28.580%)
 printout                       ...        0 min,  0.005 sec ( 11.320%)

         :::::::::::::::::::::::::::::::::::::::::::::::::::::
         ::                     SUMMARY                     ::
         :::::::::::::::::::::::::::::::::::::::::::::::::::::
         :: total energy             -53.856338105620 Eh    ::
         :: gradient norm              0.000192786263 Eh/a0 ::
         :: HOMO-LUMO gap              1.462317799702 eV    ::
         ::.................................................::
         :: SCC energy               -54.612208859208 Eh    ::
         :: -> isotropic ES            0.090568708304 Eh    ::
         :: -> anisotropic ES          0.003928375975 Eh    ::
         :: -> anisotropic XC          0.024445545643 Eh    ::
         :: -> dispersion             -0.034074313787 Eh    ::
         :: repulsion energy           0.755870753588 Eh    ::
         :: add. restraining           0.000000000000 Eh    ::
         :: total charge              -0.000000000000 e     ::
         :::::::::::::::::::::::::::::::::::::::::::::::::::::

           -------------------------------------------------
          |                Property Printout                |
           -------------------------------------------------

    * Orbital Energies and Occupations

         #    Occupation            Energy/Eh            Energy/eV
      -------------------------------------------------------------
         1        2.0000           -0.7191711             -19.5696
       ...           ...                  ...                  ...
        36        2.0000           -0.4930188             -13.4157
        37        2.0000           -0.4892347             -13.3128
        38        2.0000           -0.4880453             -13.2804
        39        2.0000           -0.4669683             -12.7069
        40        2.0000           -0.4623276             -12.5806
        41        2.0000           -0.4465514             -12.1513
        42        2.0000           -0.4312918             -11.7360
        43        2.0000           -0.4271224             -11.6226
        44        2.0000           -0.4270883             -11.6217
        45        2.0000           -0.4221936             -11.4885
        46        2.0000           -0.4016425             -10.9293
        47        2.0000           -0.3998576             -10.8807
        48        2.0000           -0.3809047             -10.3649 (HOMO)
        49                         -0.3271655              -8.9026 (LUMO)
        50                         -0.2678826              -7.2895
        51                         -0.2437045              -6.6315
        52                         -0.2237509              -6.0886
        53                         -0.2008215              -5.4646
        54                         -0.1341998              -3.6518
        55                         -0.0953585              -2.5948
        56                         -0.0299834              -0.8159
        57                          0.0169814               0.4621
        58                          0.0645680               1.7570
        59                          0.0687646               1.8712
       ...                                ...                  ...
        88                          0.7145158              19.4430
      -------------------------------------------------------------
                  HL-Gap            0.0537392 Eh            1.4623 eV
             Fermi-level           -0.3540351 Eh           -9.6338 eV

     #   Z          covCN         q      C6AA      α(0)
     1   6 C        3.758    -0.115    22.747     6.800
     2   6 C        2.965     0.013    27.716     8.635
     3   6 C        2.927    -0.043    29.067     8.842
     4   6 C        2.974     0.071    26.397     8.428
     5   7 N        1.845    -0.183    25.777     7.524
     6   6 C        2.959     0.051    26.849     8.499
     7   6 C        2.756     0.281    22.241     7.723
     8   8 O        0.858    -0.383    21.339     6.193
     9   7 N        2.696    -0.209    25.554     7.508
    10   6 C        2.726     0.351    21.038     7.509
    11   8 O        0.860    -0.406    21.797     6.260
    12   7 N        1.843    -0.326    29.307     8.023
    13   6 C        2.892     0.147    24.813     8.167
    14   7 N        2.756     0.002    21.232     6.844
    15   6 C        3.703    -0.072    22.036     6.712
    16   6 C        2.928     0.049    26.906     8.507
    17   6 C        2.920    -0.065    29.613     8.924
    18   6 C        2.969     0.024    27.474     8.598
    19   6 C        3.759    -0.115    22.743     6.799
    20   1 H        0.925     0.054     2.267     2.355
    21   1 H        0.925     0.057     2.238     2.340
    22   1 H        0.925     0.057     2.238     2.340
    23   1 H        0.926     0.074     2.047     2.237
    24   1 H        0.860     0.210     1.059     1.612
    25   1 H        0.925     0.113     1.671     2.021
    26   1 H        0.925     0.070     2.082     2.256
    27   1 H        0.925     0.070     2.082     2.257
    28   1 H        0.926     0.050     2.316     2.380
    29   1 H        0.925     0.050     2.320     2.382
    30   1 H        0.925     0.061     2.185     2.312
    31   1 H        0.925     0.061     2.185     2.312

 Mol. C6AA /au·bohr⁶  :      12482.127685
 Mol. C8AA /au·bohr⁸  :     298629.351937
 Mol. α(0) /au        :        173.294804


Wiberg/Mayer (AO) data.
largest (>0.10) Wiberg bond orders for each atom

 ---------------------------------------------------------------------------
     #   Z sym  total        # sym  WBO       # sym  WBO       # sym  WBO
 ---------------------------------------------------------------------------
     1   6 C    3.993 --     2 C    1.032    20 H    0.984    22 H    0.967
                            21 H    0.967
     2   6 C    3.968 --     3 C    1.500    18 C    1.288     1 C    1.032
     3   6 C    3.981 --     2 C    1.500     4 C    1.292    23 H    0.962
     4   6 C    3.971 --     3 C    1.292     5 N    1.250    16 C    1.225
     5   7 N    3.076 --     6 C    1.596     4 C    1.250
     6   6 C    3.975 --     5 N    1.596    13 C    1.096     7 C    0.989
     7   6 C    3.953 --     8 O    1.713     9 N    1.177     6 C    0.989
     8   8 O    2.046 --     7 C    1.713     9 N    0.172
     9   7 N    3.495 --     7 C    1.177    10 C    1.033    24 H    0.922
                             8 O    0.172    11 O    0.114
    10   6 C    3.947 --    11 O    1.688    12 N    1.160     9 N    1.033
    11   8 O    2.001 --    10 C    1.688     9 N    0.114
    12   7 N    3.026 --    13 C    1.479    10 C    1.160
    13   6 C    3.964 --    12 N    1.479    14 N    1.196     6 C    1.096
    14   7 N    3.651 --    13 C    1.196    16 C    1.175    15 C    0.986
    15   6 C    3.948 --    14 N    0.986    27 H    0.970    26 H    0.970
                            25 H    0.963
    16   6 C    3.961 --    17 C    1.331     4 C    1.225    14 N    1.175
    17   6 C    3.980 --    18 C    1.469    16 C    1.331    28 H    0.961
    18   6 C    3.974 --    17 C    1.469     2 C    1.288    19 C    1.037
    19   6 C    3.992 --    18 C    1.037    29 H    0.984    31 H    0.963
                            30 H    0.963
    20   1 H    0.997 --     1 C    0.984
    21   1 H    0.994 --     1 C    0.967
    22   1 H    0.994 --     1 C    0.967
    23   1 H    0.994 --     3 C    0.962
    24   1 H    0.955 --     9 N    0.922
    25   1 H    0.987 --    15 C    0.963
    26   1 H    0.993 --    15 C    0.970
    27   1 H    0.993 --    15 C    0.970
    28   1 H    0.997 --    17 C    0.961
    29   1 H    0.997 --    19 C    0.984
    30   1 H    0.992 --    19 C    0.963
    31   1 H    0.992 --    19 C    0.963
 ---------------------------------------------------------------------------

Topologies differ in total number of bonds
Writing topology from bond orders to xtbtopo.mol

molecular dipole:
                 x           y           z       tot (Debye)
 q only:       -2.951       2.993       0.015
   full:       -2.959       3.057       0.015      10.815
molecular quadrupole (traceless):
                xx          xy          yy          xz          yz          zz
 q only:      -65.292      56.922      23.921      -0.302       0.526      41.371
  q+dip:      -69.023      53.388      25.247      -0.285       0.559      43.776
   full:      -71.130      53.246      22.777      -0.263       0.544      48.353

           -------------------------------------------------
          |                Geometry Summary                 |
           -------------------------------------------------

      molecular mass/u    :      256.2604784
   center of mass at/Å    :        5.8974842      -1.0426565       0.0663319
  moments of inertia/u·Å² :        0.5623007E+03   0.2180217E+04   0.2733082E+04
rotational constants/cm⁻¹ :        0.2997975E-01   0.7732088E-02   0.6167993E-02

 * 29 selected distances

     #   Z          #   Z                                           value/Å
     2   6 C        3   6 C                                       1.3738424
     3   6 C        4   6 C                                       1.4023320
     4   6 C        5   7 N                                       1.3499076
     5   7 N        6   6 C                                       1.2923825
     7   6 C        8   8 O                                       1.2077820
     7   6 C        9   7 N                                       1.3686960
     9   7 N       10   6 C                                       1.4124265
    10   6 C       11   8 O                                       1.2051729
    10   6 C       12   7 N                                       1.3573143
    12   7 N       13   6 C                                       1.3018170
    13   6 C       14   7 N                                       1.3651844
    14   7 N       15   6 C                                       1.4465155 (max)
     4   6 C       16   6 C                                       1.4197198
    14   7 N       16   6 C                                       1.3698257
    16   6 C       17   6 C                                       1.3970386
     2   6 C       18   6 C                                       1.4132535
    17   6 C       18   6 C                                       1.3809176
     1   6 C       20   1 H                                       1.0859943
     1   6 C       21   1 H                                       1.0892196
     1   6 C       22   1 H                                       1.0891897
     3   6 C       23   1 H                                       1.0783294
     9   7 N       24   1 H                                       1.0146059 (min)
    15   6 C       25   1 H                                       1.0884694
    15   6 C       26   1 H                                       1.0901922
    15   6 C       27   1 H                                       1.0902055
    17   6 C       28   1 H                                       1.0783067
    19   6 C       29   1 H                                       1.0864941
    19   6 C       30   1 H                                       1.0891913
    19   6 C       31   1 H                                       1.0891459

 * 5 distinct bonds (by element types)

   Z      Z             #   av. dist./Å        max./Å        min./Å
   1 H    6 C          11     1.0867944     1.0902055     1.0783067
   6 C    6 C           6     1.3978506     1.4197198     1.3738424
   1 H    7 N           1     1.0146059     1.0146059     1.0146059
   6 C    7 N           9     1.3626744     1.4465155     1.2923825
   6 C    8 O           2     1.2064775     1.2077820     1.2051729


optimized geometry written to: xtbopt.xyz


           -------------------------------------------------
          | TOTAL ENERGY              -53.856338105620 Eh   |
          | GRADIENT NORM               0.000192786263 Eh/α |
          | HOMO-LUMO GAP               1.462317799702 eV   |
           -------------------------------------------------

------------------------------------------------------------------------
 * finished run on 2026/09/29 at 15:12:06.422     
------------------------------------------------------------------------
 total:
 * wall-time:     0 d,  0 h,  0 min,  0.454 sec
 *  cpu-time:     0 d,  0 h,  0 min,  0.334 sec
 * ratio c/w:     0.735 speedup
 SCF:
 * wall-time:     0 d,  0 h,  0 min,  0.057 sec
 *  cpu-time:     0 d,  0 h,  0 min,  0.047 sec
 * ratio c/w:     0.819 speedup
 ANC optimizer:
 * wall-time:     0 d,  0 h,  0 min,  0.366 sec
 *  cpu-time:     0 d,  0 h,  0 min,  0.276 sec
 * ratio c/w:     0.756 speedup

