31
 energy: -53.856338105620 gnorm: 0.000192786263 xtb: 6.7.1 (edcfbbe)
C            0.96969899487771       -0.09827255654198        0.08472578710259
C            2.46459896127354       -0.05312582366274        0.08013309308855
C            3.19894343764856       -1.21422189818696        0.07407457201729
C            4.60112625813467       -1.19433761575610        0.06931981575753
N            5.26785412950396       -2.36809411563007        0.06486045084032
C            6.56006017336239       -2.34709511250504        0.06101812626913
C            7.31179274321978       -3.63136234633285        0.05698366281447
O            6.80249344142871       -4.72651138151453        0.05700115254638
N            8.66797608361121       -3.44674400030147        0.05362744732032
C            9.37922491709360       -2.22646859264157        0.05252335545802
O           10.58421372375458       -2.24726369404936        0.04920006676457
N            8.64562608504892       -1.08448612865009        0.05575481718963
C            7.34454826512035       -1.12813006921346        0.06010883288564
N            6.65267638291165        0.04874178496176        0.06384844738911
C            7.40041223476666        1.28700359304594        0.06149326225948
C            5.28286481160787        0.05098821593803        0.06961658934115
C            4.52380633658223        1.22380665382368        0.07621460090392
C            3.14340673506372        1.18643120686962        0.08195551766718
C            2.36623920957807        2.46267348662924        0.09068172801150
H            0.61987604974350       -1.12638039566598        0.08348514851297
H            0.56757323096168        0.40691244270541       -0.79247546714694
H            0.57280156643584        0.40313019238389        0.96642969252784
H            2.72260198430479       -2.18163691294896        0.07305216589536
H            9.24187695444569       -4.28343798060073        0.05117536270171
H            8.45544391117295        1.01934091260057        0.05599617834812
H            7.17171425566553        1.86836833777854        0.95493106912684
H            7.16263558874855        1.87012350706315       -0.82844005766921
H            5.01517132922064        2.18365268629306        0.07733635330000
H            3.02811690929953        3.32429205453787        0.08987707391493
H            1.72952058295911        2.51341050047650        0.97292463346362
H            1.71901661873946        2.51961576963787       -0.78344585656905
