      -----------------------------------------------------------      
     |                   =====================                   |     
     |                           x T B                           |     
     |                   =====================                   |     
     |                         S. Grimme                         |     
     |          Mulliken Center for Theoretical Chemistry        |     
     |                    University of Bonn                     |     
      -----------------------------------------------------------      

   * xtb version 6.7.1 (edcfbbe) compiled by 'runner@Mac-1732539442253.local' on 2024-11-25

   xtb is free software: you can redistribute it and/or modify it under
   the terms of the GNU Lesser General Public License as published by
   the Free Software Foundation, either version 3 of the License, or
   (at your option) any later version.
   
   xtb is distributed in the hope that it will be useful,
   but WITHOUT ANY WARRANTY; without even the implied warranty of
   MERCHANTABILITY or FITNESS FOR A PARTICULAR PURPOSE.  See the
   GNU Lesser General Public License for more details.
   
   Cite this work as:
   * C. Bannwarth, E. Caldeweyher, S. Ehlert, A. Hansen, P. Pracht,
     J. Seibert, S. Spicher, S. Grimme, WIREs Comput. Mol. Sci., 2020, 11,
     e01493. DOI: 10.1002/wcms.1493
   
   for GFN2-xTB:
   * C. Bannwarth, S. Ehlert and S. Grimme., J. Chem. Theory Comput., 2019,
     15, 1652-1671. DOI: 10.1021/acs.jctc.8b01176
   for GFN1-xTB:
   * S. Grimme, C. Bannwarth, P. Shushkov, J. Chem. Theory Comput., 2017,
     13, 1989-2009. DOI: 10.1021/acs.jctc.7b00118
   for GFN0-xTB:
   * P. Pracht, E. Caldeweyher, S. Ehlert, S. Grimme, ChemRxiv, 2019, preprint.
     DOI: 10.26434/chemrxiv.8326202.v1
   for GFN-FF:
   * S. Spicher and S. Grimme, Angew. Chem. Int. Ed., 2020, 59, 15665-15673.
     DOI: 10.1002/anie.202004239
   
   for ALPB and GBSA implicit solvation:
   * S. Ehlert, M. Stahn, S. Spicher, S. Grimme, J. Chem. Theory Comput.,
     2021, 17, 4250-4261. DOI: 10.1021/acs.jctc.1c00471
   
   for ddCOSMO and CPCM-X implicit solvation:
   * M. Stahn, S. Ehlert, S. Grimme, J. Phys. Chem. A,
     2023, XX, XXXX-XXXX. DOI: 10.1021/acs.jpca.3c04382
   
   for DFT-D4:
   * E. Caldeweyher, C. Bannwarth and S. Grimme, J. Chem. Phys., 2017,
     147, 034112. DOI: 10.1063/1.4993215
   * E. Caldeweyher, S. Ehlert, A. Hansen, H. Neugebauer, S. Spicher,
     C. Bannwarth and S. Grimme, J. Chem. Phys., 2019, 150, 154122.
     DOI: 10.1063/1.5090222
   * E. Caldeweyher, J.-M. Mewes, S. Ehlert and S. Grimme, Phys. Chem. Chem. Phys.
     2020, 22, 8499-8512. DOI: 10.1039/D0CP00502A
   
   for sTDA-xTB:
   * S. Grimme and C. Bannwarth, J. Chem. Phys., 2016, 145, 054103.
     DOI: 10.1063/1.4959605
   
   in the mass-spec context:
   * V. Asgeirsson, C. Bauer and S. Grimme, Chem. Sci., 2017, 8, 4879.
     DOI: 10.1039/c7sc00601b
   * J. Koopman and S. Grimme, ACS Omega 2019, 4, 12, 15120-15133.
     DOI: 10.1021/acsomega.9b02011
   
   for metadynamics refer to:
   * S. Grimme, J. Chem. Theory Comput., 2019, 155, 2847-2862
     DOI: 10.1021/acs.jctc.9b00143
   
   for SPH calculations refer to:
   * S. Spicher and S. Grimme, J. Chem. Theory Comput., 2021, 17, 1701-1714
     DOI: 10.1021/acs.jctc.0c01306
   
   for ONIOM refer to:
   * C. Plett, A. Katbashev, S. Ehlert, S. Grimme, M. Bursch,
     Phys. Chem. Chem. Phys., 2023, 25, 17860-17868. DOI: 10.1039/D3CP02178E
   
   for DIPRO refer to:
   * J. Kohn, N. Gildemeister, S. Grimme, D. Fazzi, A. Hansen,
     J. Chem. Phys., 2023, just accepted.
   
   for PTB refer to:
   * S. Grimme, M. Mueller, A. Hansen, J. Chem. Phys., 2023, 158, 124111.
     DOI: 10.1063/5.0137838
   
   with help from (in alphabetical order)
   P. Atkinson, C. Bannwarth, F. Bohle, G. Brandenburg, E. Caldeweyher
   M. Checinski, S. Dohm, S. Ehlert, S. Ehrlich, I. Gerasimov, C. Hölzer
   A. Katbashev, J. Kohn, J. Koopman, C. Lavigne, S. Lehtola, F. März, M. Müller,
   F. Musil, H. Neugebauer, J. Pisarek, C. Plett, P. Pracht, F. Pultar,
   J. Seibert, P. Shushkov, S. Spicher, M. Stahn, M. Steiner, T. Strunk,
   J. Stückrath, T. Rose, and J. Unsleber
   
 * started run on 2026/09/29 at 15:12:07.335     
   ID    Z sym.   atoms
    1    7 N      1
    2    6 C      2-8
    3    1 H      9-17

           -------------------------------------------------
          |                Calculation Setup                |
           -------------------------------------------------

          program call               : xtb in.xyz --opt tight --input xcontrol --chrg 0 --uhf 0
          coordinate file            : in.xyz
          omp threads                :                     4


           -------------------------------------------------
          |                 G F N 2 - x T B                 |
           -------------------------------------------------

        Reference                      10.1021/acs.jctc.8b01176
      * Hamiltonian:
        H0-scaling (s, p, d)           1.850000    2.230000    2.230000
        zeta-weighting                 0.500000
      * Dispersion:
        s8                             2.700000
        a1                             0.520000
        a2                             5.000000
        s9                             5.000000
      * Repulsion:
        kExp                           1.500000    1.000000
        rExp                           1.000000
      * Coulomb:
        alpha                          2.000000
        third order                    shell-resolved
        anisotropic                    true
        a3                             3.000000
        a5                             4.000000
        cn-shift                       1.200000
        cn-exp                         4.000000
        max-rad                        5.000000

q/qsh data taken from xtbrestart
CAMM data taken from xtbrestart

          ...................................................
          :                      SETUP                      :
          :.................................................:
          :  # basis functions                  41          :
          :  # atomic orbitals                  41          :
          :  # shells                           25          :
          :  # electrons                        42          :
          :  max. iterations                   250          :
          :  Hamiltonian                  GFN2-xTB          :
          :  restarted?                       true          :
          :  GBSA solvation                  false          :
          :  PC potential                    false          :
          :  electronic temp.          300.0000000     K    :
          :  accuracy                    1.0000000          :
          :  -> integral cutoff          0.2500000E+02      :
          :  -> integral neglect         0.1000000E-07      :
          :  -> SCF convergence          0.1000000E-05 Eh   :
          :  -> wf. convergence          0.1000000E-03 e    :
          :  Broyden damping             0.4000000          :
          :  net charge                          0          :
          :  unpaired electrons                  0          :
          ...................................................

 iter      E             dE          RMSdq      gap      omega  full diag
   1    -22.8349515 -0.228350E+02  0.784E-01    4.00       0.0  T
   2    -22.8350593 -0.107739E-03  0.449E-01    3.98       1.0  T
   3    -22.8350732 -0.139338E-04  0.454E-02    3.95       1.0  T
   4    -22.8350865 -0.132709E-04  0.192E-02    3.94       1.3  T
   5    -22.8350871 -0.612581E-06  0.113E-02    3.94       2.2  T
   6    -22.8350877 -0.567089E-06  0.147E-03    3.94      16.4  T
   7    -22.8350877 -0.559406E-08  0.728E-04    3.94      33.3  T
   8    -22.8350877 -0.334059E-08  0.249E-04    3.94      97.5  T

   *** convergence criteria satisfied after 8 iterations ***

         #    Occupation            Energy/Eh            Energy/eV
      -------------------------------------------------------------
         1        2.0000           -0.6392478             -17.3948
       ...           ...                  ...                  ...
        15        2.0000           -0.4645972             -12.6423
        16        2.0000           -0.4542560             -12.3609
        17        2.0000           -0.4203104             -11.4372
        18        2.0000           -0.4170133             -11.3475
        19        2.0000           -0.3981326             -10.8337
        20        2.0000           -0.3934877             -10.7073
        21        2.0000           -0.3668067              -9.9813 (HOMO)
        22                         -0.2220369              -6.0419 (LUMO)
        23                         -0.2211701              -6.0183
        24                         -0.0974209              -2.6510
        25                          0.0558588               1.5200
        26                          0.0951373               2.5888
       ...                                ...                  ...
        41                          0.6343146              17.2606
      -------------------------------------------------------------
                  HL-Gap            0.1447698 Eh            3.9394 eV
             Fermi-level           -0.2944218 Eh           -8.0116 eV

 SCC (total)                   0 d,  0 h,  0 min,  0.013 sec
 SCC setup                      ...        0 min,  0.000 sec (  1.485%)
 Dispersion                     ...        0 min,  0.000 sec (  0.906%)
 classical contributions        ...        0 min,  0.000 sec (  0.289%)
 integral evaluation            ...        0 min,  0.001 sec (  9.984%)
 iterations                     ...        0 min,  0.007 sec ( 50.932%)
 molecular gradient             ...        0 min,  0.005 sec ( 35.224%)
 printout                       ...        0 min,  0.000 sec (  1.009%)

         :::::::::::::::::::::::::::::::::::::::::::::::::::::
         ::                     SUMMARY                     ::
         :::::::::::::::::::::::::::::::::::::::::::::::::::::
         :: total energy             -22.463405568636 Eh    ::
         :: gradient norm              0.026192978000 Eh/a0 ::
         :: HOMO-LUMO gap              3.939385942620 eV    ::
         ::.................................................::
         :: SCC energy               -22.835057484597 Eh    ::
         :: -> isotropic ES            0.011515604218 Eh    ::
         :: -> anisotropic ES          0.004933681822 Eh    ::
         :: -> anisotropic XC          0.018749188833 Eh    ::
         :: -> dispersion             -0.012546777430 Eh    ::
         :: repulsion energy           0.371651915961 Eh    ::
         :: add. restraining           0.000000000000 Eh    ::
         :: total charge              -0.000000000000 e     ::
         :::::::::::::::::::::::::::::::::::::::::::::::::::::

      ----------------------------------------------------------- 
     |                       L-ANC optimizer                     |
      ----------------------------------------------------------- 
          low memory version by Sebastian Ehlert

          ...................................................
          :                      SETUP                      :
          :.................................................:
          :   energy convergence        0.1000000E-05 Eh    :
          :   grad. convergence         0.8000000E-03 Eh/a0 :
          :   optimization log               true           :
          :   writing optlog all                1     steps :
          :   Hessian reset                    20     steps :
          :   maximium step len.        1.0000000     a0    :
          :   LBFGS images                     20           :
          ...................................................
 * calculating model hessian...
Using Lindh-Hessian (1995)
 Shifting diagonal of input Hessian by    1.0000000000000000E-002
 Lowest  eigenvalues of input Hessian
    0.000000    0.000000    0.000000    0.000000    0.000000    0.000000
    0.013253    0.013813    0.020626    0.022269    0.024045    0.031510
    0.033872    0.038518    0.052642    0.069919    0.073699    0.075744
 Highest eigenvalues
    1.419648    1.529624    1.567270    1.830552    1.929576    1.945862


........................................................................
.............................. CYCLE    1 ..............................
........................................................................

 iter      E             dE          RMSdq      gap      omega  full diag
   1    -22.8525787 -0.228526E+02  0.157E-01    4.05       0.0  T
   2    -22.8525812 -0.242553E-05  0.938E-02    4.04       1.0  T
   3    -22.8525805  0.678537E-06  0.100E-02    4.04       2.4  T
   4    -22.8525819 -0.145318E-05  0.365E-03    4.04       6.6  T
   5    -22.8525820 -0.699880E-07  0.146E-03    4.04      16.6  T
   6    -22.8525820 -0.331002E-08  0.378E-04    4.04      64.1  T
   7    -22.8525820 -0.606338E-09  0.133E-04    4.04     182.3  T
     SCC iter.                  ...        0 min,  0.017 sec
     gradient                   ...        0 min,  0.010 sec
 * total energy  :   -22.4653675 Eh     change       -0.1961935E-02 Eh
   gradient norm :     0.0057871 Eh/a0  converged?    E=F G=F D=F
   step length   :     0.1846263 a0

........................................................................
.............................. CYCLE    2 ..............................
........................................................................

 iter      E             dE          RMSdq      gap      omega  full diag
   1    -22.8574033 -0.228574E+02  0.573E-02    4.05       0.0  T
   2    -22.8574040 -0.671294E-06  0.337E-02    4.04       1.0  T
   3    -22.8574037  0.314028E-06  0.525E-03    4.04       4.6  T
   4    -22.8574041 -0.459406E-06  0.189E-03    4.04      12.8  T
   5    -22.8574042 -0.343785E-07  0.755E-04    4.05      32.1  T
   6    -22.8574042 -0.104004E-08  0.247E-04    4.05      98.1  T
     SCC iter.                  ...        0 min,  0.045 sec
     gradient                   ...        0 min,  0.033 sec
 * total energy  :   -22.4655814 Eh     change       -0.2139268E-03 Eh
   gradient norm :     0.0032267 Eh/a0  converged?    E=F G=F D=F
   step length   :     0.1092412 a0

........................................................................
.............................. CYCLE    3 ..............................
........................................................................

 iter      E             dE          RMSdq      gap      omega  full diag
   1    -22.8581477 -0.228581E+02  0.404E-02    4.03       0.0  T
   2    -22.8581481 -0.392027E-06  0.234E-02    4.03       1.0  T
   3    -22.8581481  0.444442E-07  0.314E-03    4.03       7.7  T
   4    -22.8581482 -0.101470E-06  0.110E-03    4.03      22.1  T
   5    -22.8581482 -0.110541E-07  0.508E-04    4.03      47.7  T
   6    -22.8581482 -0.115237E-08  0.174E-04    4.03     139.1  T
     SCC iter.                  ...        0 min,  0.009 sec
     gradient                   ...        0 min,  0.003 sec
 * total energy  :   -22.4656489 Eh     change       -0.6749618E-04 Eh
   gradient norm :     0.0023631 Eh/a0  converged?    E=F G=F D=F
   step length   :     0.0895651 a0

........................................................................
.............................. CYCLE    4 ..............................
........................................................................

 iter      E             dE          RMSdq      gap      omega  full diag
   1    -22.8579031 -0.228579E+02  0.520E-02    4.02       0.0  T
   2    -22.8579036 -0.455996E-06  0.301E-02    4.02       1.0  T
   3    -22.8579035  0.900808E-07  0.369E-03    4.02       6.6  T
   4    -22.8579037 -0.173226E-06  0.121E-03    4.02      20.0  T
   5    -22.8579037 -0.131692E-07  0.598E-04    4.02      40.6  T
   6    -22.8579037 -0.123091E-08  0.154E-04    4.02     158.0  T
     SCC iter.                  ...        0 min,  0.004 sec
     gradient                   ...        0 min,  0.004 sec
 * total energy  :   -22.4656917 Eh     change       -0.4279672E-04 Eh
   gradient norm :     0.0013478 Eh/a0  converged?    E=F G=F D=F
   step length   :     0.1086570 a0

........................................................................
.............................. CYCLE    5 ..............................
........................................................................

 iter      E             dE          RMSdq      gap      omega  full diag
   1    -22.8575025 -0.228575E+02  0.459E-02    4.02       0.0  T
   2    -22.8575027 -0.229225E-06  0.266E-02    4.02       1.0  T
   3    -22.8575026  0.908214E-07  0.309E-03    4.02       7.8  T
   4    -22.8575028 -0.157016E-06  0.932E-04    4.02      26.0  T
   5    -22.8575028 -0.590680E-08  0.461E-04    4.02      52.6  T
     SCC iter.                  ...        0 min,  0.008 sec
     gradient                   ...        0 min,  0.003 sec
 * total energy  :   -22.4657082 Eh     change       -0.1648020E-04 Eh
   gradient norm :     0.0010964 Eh/a0  converged?    E=F G=F D=F
   step length   :     0.0876139 a0

........................................................................
.............................. CYCLE    6 ..............................
........................................................................

 iter      E             dE          RMSdq      gap      omega  full diag
   1    -22.8575886 -0.228576E+02  0.188E-02    4.03       0.0  T
   2    -22.8575886 -0.509702E-07  0.108E-02    4.03       2.2  T
   3    -22.8575886 -0.761220E-08  0.829E-04    4.03      29.3  T
   4    -22.8575886 -0.416512E-08  0.432E-04    4.03      56.2  T
     SCC iter.                  ...        0 min,  0.003 sec
     gradient                   ...        0 min,  0.004 sec
 * total energy  :   -22.4657173 Eh     change       -0.9128372E-05 Eh
   gradient norm :     0.0007533 Eh/a0  converged?    E=F G=T D=F
   step length   :     0.0364581 a0

........................................................................
.............................. CYCLE    7 ..............................
........................................................................

 iter      E             dE          RMSdq      gap      omega  full diag
   1    -22.8575010 -0.228575E+02  0.470E-02    4.04       0.0  T
   2    -22.8575014 -0.309391E-06  0.268E-02    4.04       1.0  T
   3    -22.8575014 -0.564405E-07  0.209E-03    4.04      11.6  T
   4    -22.8575014 -0.336598E-07  0.104E-03    4.04      23.3  T
   5    -22.8575015 -0.545334E-08  0.412E-04    4.04      58.9  T
   6    -22.8575015 -0.103568E-08  0.120E-04    4.04     202.3  T
     SCC iter.                  ...        0 min,  0.004 sec
     gradient                   ...        0 min,  0.001 sec
 * total energy  :   -22.4657326 Eh     change       -0.1527897E-04 Eh
   gradient norm :     0.0012508 Eh/a0  converged?    E=F G=F D=F
   step length   :     0.1030785 a0

........................................................................
.............................. CYCLE    8 ..............................
........................................................................

 iter      E             dE          RMSdq      gap      omega  full diag
   1    -22.8572735 -0.228573E+02  0.770E-02    4.05       0.0  T
   2    -22.8572743 -0.842569E-06  0.439E-02    4.05       1.0  T
   3    -22.8572745 -0.192059E-06  0.332E-03    4.05       7.3  T
   4    -22.8572746 -0.721513E-07  0.166E-03    4.05      14.6  T
   5    -22.8572746 -0.533209E-08  0.696E-04    4.05      34.8  T
   6    -22.8572746 -0.486888E-08  0.163E-04    4.05     148.8  T
     SCC iter.                  ...        0 min,  0.003 sec
     gradient                   ...        0 min,  0.001 sec
 * total energy  :   -22.4657529 Eh     change       -0.2027628E-04 Eh
   gradient norm :     0.0026744 Eh/a0  converged?    E=F G=F D=F
   step length   :     0.1756543 a0

........................................................................
.............................. CYCLE    9 ..............................
........................................................................

 iter      E             dE          RMSdq      gap      omega  full diag
   1    -22.8569995 -0.228570E+02  0.769E-02    4.06       0.0  T
   2    -22.8570004 -0.812323E-06  0.439E-02    4.06       1.0  T
   3    -22.8570005 -0.179549E-06  0.335E-03    4.06       7.3  T
   4    -22.8570006 -0.750475E-07  0.162E-03    4.06      15.0  T
   5    -22.8570006 -0.290150E-08  0.750E-04    4.06      32.3  T
   6    -22.8570006 -0.590912E-08  0.140E-04    4.06     173.3  T
     SCC iter.                  ...        0 min,  0.003 sec
     gradient                   ...        0 min,  0.001 sec
 * total energy  :   -22.4657755 Eh     change       -0.2264140E-04 Eh
   gradient norm :     0.0037199 Eh/a0  converged?    E=F G=F D=F
   step length   :     0.1768995 a0

........................................................................
.............................. CYCLE   10 ..............................
........................................................................

 iter      E             dE          RMSdq      gap      omega  full diag
   1    -22.8562206 -0.228562E+02  0.131E-01    4.07       0.0  T
   2    -22.8562229 -0.232503E-05  0.749E-02    4.07       1.0  T
   3    -22.8562234 -0.451213E-06  0.606E-03    4.08       4.0  T
   4    -22.8562236 -0.270273E-06  0.281E-03    4.08       8.6  T
   5    -22.8562236 -0.113835E-07  0.140E-03    4.08      17.3  T
   6    -22.8562237 -0.163433E-07  0.220E-04    4.08     110.4  T
   7    -22.8562237 -0.687592E-10  0.973E-05    4.08     249.4  T
     SCC iter.                  ...        0 min,  0.004 sec
     gradient                   ...        0 min,  0.002 sec
 * total energy  :   -22.4658082 Eh     change       -0.3264417E-04 Eh
   gradient norm :     0.0056924 Eh/a0  converged?    E=F G=F D=F
   step length   :     0.2995947 a0

........................................................................
.............................. CYCLE   11 ..............................
........................................................................

 iter      E             dE          RMSdq      gap      omega  full diag
   1    -22.8572811 -0.228573E+02  0.541E-02    4.07       0.0  T
   2    -22.8572813 -0.218785E-06  0.314E-02    4.07       1.0  T
   3    -22.8572813  0.467923E-07  0.296E-03    4.07       8.2  T
   4    -22.8572814 -0.122491E-06  0.104E-03    4.07      23.3  T
   5    -22.8572814 -0.421035E-08  0.423E-04    4.07      57.4  T
   6    -22.8572814 -0.390759E-09  0.102E-04    4.07     238.1  T
     SCC iter.                  ...        0 min,  0.003 sec
     gradient                   ...        0 min,  0.009 sec
 * total energy  :   -22.4658555 Eh     change       -0.4731064E-04 Eh
   gradient norm :     0.0034157 Eh/a0  converged?    E=F G=F D=F
   step length   :     0.1131968 a0

........................................................................
.............................. CYCLE   12 ..............................
........................................................................

 iter      E             dE          RMSdq      gap      omega  full diag
   1    -22.8563872 -0.228564E+02  0.141E-01    4.06       0.0  T
   2    -22.8563906 -0.341539E-05  0.806E-02    4.07       1.0  T
   3    -22.8563910 -0.326236E-06  0.794E-03    4.07       3.1  T
   4    -22.8563915 -0.516770E-06  0.315E-03    4.07       7.7  T
   5    -22.8563915 -0.232483E-07  0.178E-03    4.07      13.7  T
   6    -22.8563915 -0.168778E-07  0.247E-04    4.07      98.4  T
   7    -22.8563915 -0.885336E-10  0.916E-05    4.07     264.8  T
     SCC iter.                  ...        0 min,  0.010 sec
     gradient                   ...        0 min,  0.003 sec
 * total energy  :   -22.4658946 Eh     change       -0.3916118E-04 Eh
   gradient norm :     0.0036705 Eh/a0  converged?    E=F G=F D=F
   step length   :     0.3112386 a0

........................................................................
.............................. CYCLE   13 ..............................
........................................................................

 iter      E             dE          RMSdq      gap      omega  full diag
   1    -22.8580549 -0.228581E+02  0.329E-02    4.06       0.0  T
   2    -22.8580552 -0.261365E-06  0.191E-02    4.06       1.3  T
   3    -22.8580552  0.424150E-07  0.294E-03    4.06       8.2  T
   4    -22.8580553 -0.839238E-07  0.102E-03    4.06      23.9  T
   5    -22.8580553 -0.621798E-08  0.515E-04    4.06      47.1  T
   6    -22.8580553 -0.114998E-08  0.132E-04    4.06     184.3  T
     SCC iter.                  ...        0 min,  0.004 sec
     gradient                   ...        0 min,  0.002 sec
 * total energy  :   -22.4659081 Eh     change       -0.1342715E-04 Eh
   gradient norm :     0.0024150 Eh/a0  converged?    E=F G=F D=F
   step length   :     0.0523866 a0

........................................................................
.............................. CYCLE   14 ..............................
........................................................................

 iter      E             dE          RMSdq      gap      omega  full diag
   1    -22.8570529 -0.228571E+02  0.674E-02    4.06       0.0  T
   2    -22.8570536 -0.714169E-06  0.385E-02    4.06       1.0  T
   3    -22.8570536 -0.630110E-07  0.379E-03    4.07       6.4  T
   4    -22.8570538 -0.133230E-06  0.155E-03    4.07      15.7  T
   5    -22.8570538 -0.661403E-08  0.828E-04    4.07      29.3  T
   6    -22.8570538 -0.394947E-08  0.109E-04    4.07     221.7  T
     SCC iter.                  ...        0 min,  0.004 sec
     gradient                   ...        0 min,  0.007 sec
 * total energy  :   -22.4659236 Eh     change       -0.1549273E-04 Eh
   gradient norm :     0.0015993 Eh/a0  converged?    E=F G=F D=F
   step length   :     0.1512912 a0

........................................................................
.............................. CYCLE   15 ..............................
........................................................................

 iter      E             dE          RMSdq      gap      omega  full diag
   1    -22.8570824 -0.228571E+02  0.445E-02    4.07       0.0  T
   2    -22.8570826 -0.238433E-06  0.256E-02    4.07       1.0  T
   3    -22.8570826 -0.255267E-07  0.227E-03    4.07      10.7  T
   4    -22.8570827 -0.492091E-07  0.999E-04    4.07      24.3  T
   5    -22.8570827 -0.345114E-08  0.443E-04    4.07      54.7  T
     SCC iter.                  ...        0 min,  0.004 sec
     gradient                   ...        0 min,  0.003 sec
 * total energy  :   -22.4659328 Eh     change       -0.9209321E-05 Eh
   gradient norm :     0.0018784 Eh/a0  converged?    E=F G=F D=F
   step length   :     0.1044725 a0

........................................................................
.............................. CYCLE   16 ..............................
........................................................................

 iter      E             dE          RMSdq      gap      omega  full diag
   1    -22.8580268 -0.228580E+02  0.213E-02    4.08       0.0  T
   2    -22.8580269 -0.627506E-07  0.124E-02    4.08       2.0  T
   3    -22.8580268  0.352617E-08  0.124E-03    4.08      19.6  T
   4    -22.8580269 -0.162618E-07  0.602E-04    4.08      40.3  T
   5    -22.8580269 -0.326659E-08  0.205E-04    4.08     118.3  T
     SCC iter.                  ...        0 min,  0.007 sec
     gradient                   ...        0 min,  0.004 sec
 * total energy  :   -22.4659404 Eh     change       -0.7601203E-05 Eh
   gradient norm :     0.0009010 Eh/a0  converged?    E=F G=F D=F
   step length   :     0.0455625 a0

........................................................................
.............................. CYCLE   17 ..............................
........................................................................

 iter      E             dE          RMSdq      gap      omega  full diag
   1    -22.8571110 -0.228571E+02  0.101E-01    4.08       0.0  T
   2    -22.8571130 -0.193612E-05  0.576E-02    4.08       1.0  T
   3    -22.8571132 -0.228529E-06  0.581E-03    4.08       4.2  T
   4    -22.8571134 -0.254394E-06  0.236E-03    4.08      10.3  T
   5    -22.8571135 -0.106621E-07  0.133E-03    4.08      18.2  T
   6    -22.8571135 -0.772456E-08  0.168E-04    4.08     144.5  T
   7    -22.8571135 -0.127613E-10  0.556E-05    4.08     436.4  T
     SCC iter.                  ...        0 min,  0.008 sec
     gradient                   ...        0 min,  0.003 sec
 * total energy  :   -22.4659426 Eh     change       -0.2188820E-05 Eh
   gradient norm :     0.0020690 Eh/a0  converged?    E=F G=F D=F
   step length   :     0.2284092 a0

........................................................................
.............................. CYCLE   18 ..............................
........................................................................

 iter      E             dE          RMSdq      gap      omega  full diag
   1    -22.8575310 -0.228575E+02  0.204E-02    4.08       0.0  T
   2    -22.8575311 -0.116177E-06  0.116E-02    4.08       2.1  T
   3    -22.8575311 -0.884011E-08  0.147E-03    4.08      16.5  T
   4    -22.8575311 -0.156968E-07  0.548E-04    4.08      44.3  T
   5    -22.8575311 -0.475630E-09  0.329E-04    4.08      73.7  T
     SCC iter.                  ...        0 min,  0.003 sec
     gradient                   ...        0 min,  0.002 sec
 * total energy  :   -22.4659483 Eh     change       -0.5705898E-05 Eh
   gradient norm :     0.0010055 Eh/a0  converged?    E=F G=F D=F
   step length   :     0.0445356 a0

........................................................................
.............................. CYCLE   19 ..............................
........................................................................

 iter      E             dE          RMSdq      gap      omega  full diag
   1    -22.8577772 -0.228578E+02  0.118E-02    4.08       0.0  T
   2    -22.8577772 -0.288005E-07  0.683E-03    4.08       3.5  T
   3    -22.8577772  0.175481E-07  0.125E-03    4.08      19.3  T
   4    -22.8577772 -0.262124E-07  0.353E-04    4.08      68.8  T
   5    -22.8577772 -0.734893E-09  0.158E-04    4.08     153.6  T
     SCC iter.                  ...        0 min,  0.004 sec
     gradient                   ...        0 min,  0.005 sec
 * total energy  :   -22.4659504 Eh     change       -0.2144256E-05 Eh
   gradient norm :     0.0002491 Eh/a0  converged?    E=F G=T D=F
   step length   :     0.0270753 a0

........................................................................
.............................. CYCLE   20 ..............................
........................................................................

 iter      E             dE          RMSdq      gap      omega  full diag
   1    -22.8577867 -0.228578E+02  0.230E-02    4.08       0.0  T
   2    -22.8577868 -0.783993E-07  0.131E-02    4.08       1.9  T
   3    -22.8577868 -0.754988E-08  0.136E-03    4.08      17.8  T
   4    -22.8577868 -0.162729E-07  0.542E-04    4.08      44.7  T
   5    -22.8577868 -0.816321E-09  0.272E-04    4.08      89.3  T
     SCC iter.                  ...        0 min,  0.011 sec
     gradient                   ...        0 min,  0.004 sec
 * total energy  :   -22.4659513 Eh     change       -0.9058639E-06 Eh
   gradient norm :     0.0003783 Eh/a0  converged?    E=T G=T D=F
   step length   :     0.0518680 a0

   *** GEOMETRY OPTIMIZATION CONVERGED AFTER 20 CYCLES ***

------------------------------------------------------------------------
 total energy gain   :        -0.0025458 Eh       -1.5975 kcal/mol
 total RMSD          :         0.4750390 a0        0.2514 Å
 total power (kW/mol):        -0.3341935 (step)  -22.2509 (real)
------------------------------------------------------------------------

 L-ANCopt (total)              0 d,  0 h,  0 min,  0.300 sec
 setup                          ...        0 min,  0.000 sec (  0.103%)
 model hessian                  ...        0 min,  0.001 sec (  0.350%)
 ANC generation                 ...        0 min,  0.000 sec (  0.058%)
 coordinate transformation      ...        0 min,  0.000 sec (  0.040%)
 Rational function              ...        0 min,  0.000 sec (  0.007%)
 singlepoint calculation        ...        0 min,  0.296 sec ( 98.406%)
 optimization log               ...        0 min,  0.002 sec (  0.729%)
 hessian update                 ...        0 min,  0.000 sec (  0.035%)

================
 final structure:
================
17
 xtb: 6.7.1 (edcfbbe)
N            1.46456526600375        0.99919093649610       -0.02875781239223
C            2.39820790171502       -0.11599052227360       -0.10113903618829
C            3.00962551423159       -0.21392098116016       -1.47456340393144
C            3.29576824954577        0.94022156083411       -2.19250674974452
C            3.86409145944345        0.86010240817795       -3.45065732191097
C            4.15819726711188       -0.37478768436800       -4.00424928651409
C            3.87785313964961       -1.52897334603350       -3.29376716386497
C            3.30365428286242       -1.44841959495564       -2.03699010899016
H            1.06803071228074        1.06693913122061        0.90195333692638
H            0.70275400482332        0.85793479057036       -0.68486568371088
H            1.94306769190395       -1.08684258116084        0.16191804941733
H            3.19416019576468        0.08115252119669        0.62752742172351
H            3.06020241050257        1.89638237134306       -1.75152094698565
H            4.08057979712916        1.76406879025389       -4.00146715035229
H            4.60329917432986       -0.43799904455371       -4.98650827259003
H            4.10301260616301       -2.49583003038583       -3.72037461091943
H            3.08338063704823       -2.35359625715281       -1.48763885406128

 Bond Distances (Angstroems)
 ---------------------------
N1-C2=1.4562         N1-H9=1.0139         N1-H10=1.0153        C2-N1=1.4562         C2-C3=1.5066         C2-H11=1.1040        
C2-H12=1.0970        C3-C2=1.5066         C3-C4=1.3890         C3-C8=1.3881         C4-C3=1.3890         C4-C5=1.3829         
C4-H13=1.0790        C5-C4=1.3829         C5-C6=1.3849         C5-H14=1.0805        C6-C5=1.3849         C6-C7=1.3840         
C6-H15=1.0803        C7-C6=1.3840         C7-C8=1.3841         C7-H16=1.0805        C8-C3=1.3881         C8-C7=1.3841         
C8-H17=1.0815        H9-N1=1.0139         H10-N1=1.0153        H11-C2=1.1040        H12-C2=1.0970        H13-C4=1.0790        
H14-C5=1.0805        H15-C6=1.0803        H16-C7=1.0805        H17-C8=1.0815        
 C  H  Rav=1.0861 sigma=0.0093  Rmin=1.0790  Rmax=1.1040     7
 C  C  Rav=1.4028 sigma=0.0424  Rmin=1.3829  Rmax=1.5066     7
 N  H  Rav=1.0146 sigma=0.0007  Rmin=1.0139  Rmax=1.0153     2
 N  C  Rav=1.4562 sigma=0.0000  Rmin=1.4562  Rmax=1.4562     1

 selected bond angles (degree)
 --------------------
H9-N1-C2=110.34                H10-N1-C2=110.02               H10-N1-H9=108.00               C3-C2-N1=110.81                
H11-C2-N1=113.41               H11-C2-C3=109.11               H12-C2-N1=107.13               H12-C2-C3=108.83               
H12-C2-H11=107.39              C4-C3-C2=120.05                C8-C3-C2=120.87                C8-C3-C4=119.07                
C5-C4-C3=120.45                H13-C4-C3=118.69               H13-C4-C5=120.86               C6-C5-C4=120.17                
H14-C5-C4=119.85               H14-C5-C6=119.98               C7-C6-C5=119.70                H15-C6-C5=120.21               
H15-C6-C7=120.10               C8-C7-C6=120.11                H16-C7-C6=120.09               H16-C7-C8=119.80               
C7-C8-C3=120.50                H17-C8-C3=119.70               H17-C8-C7=119.80               

 selected dihedral angles (degree)
 ---------------------------------
C3-C2-N1-H9=180.85            C3-C2-N1-H10= 61.78           H11-C2-N1-H9= 57.74           H11-C2-N1-H10=298.67          
H12-C2-N1-H9=299.43           H12-C2-N1-H10=180.36          C4-C3-C2-N1= 35.77            C4-C3-C2-H11=161.32           
C4-C3-C2-H12=278.22           C8-C3-C2-N1=215.31            C8-C3-C2-H11=340.86           C8-C3-C2-H12= 97.76           
C5-C4-C3-C2=179.63            C5-C4-C3-C8=  0.08            H13-C4-C3-C2=359.25           H13-C4-C3-C8=179.70           
C6-C5-C4-C3=359.74            C6-C5-C4-H13=180.13           H14-C5-C4-C3=179.86           H14-C5-C4-H13=  0.25          
C7-C6-C5-C4=  0.15            C7-C6-C5-H14=180.03           H15-C6-C5-C4=180.08           H15-C6-C5-H14=359.96          
C8-C7-C6-C5=  0.13            C8-C7-C6-H15=180.21           H16-C7-C6-C5=179.89           H16-C7-C6-H15=359.96          
C7-C8-C3-C2=180.66            C7-C8-C3-C4=  0.20            H17-C8-C3-C2=  0.57           H17-C8-C3-C4=180.11           
C3-C8-C7-C6=359.69            C3-C8-C7-H16=179.93           H17-C8-C7-C6=179.78           H17-C8-C7-H16=  0.02          
           -------------------------------------------------
          |                Final Singlepoint                |
           -------------------------------------------------

          ...................................................
          :                      SETUP                      :
          :.................................................:
          :  # basis functions                  41          :
          :  # atomic orbitals                  41          :
          :  # shells                           25          :
          :  # electrons                        42          :
          :  max. iterations                   250          :
          :  Hamiltonian                  GFN2-xTB          :
          :  restarted?                      false          :
          :  GBSA solvation                  false          :
          :  PC potential                    false          :
          :  electronic temp.          300.0000000     K    :
          :  accuracy                    1.0000000          :
          :  -> integral cutoff          0.2500000E+02      :
          :  -> integral neglect         0.1000000E-07      :
          :  -> SCF convergence          0.1000000E-05 Eh   :
          :  -> wf. convergence          0.1000000E-03 e    :
          :  Broyden damping             0.4000000          :
          :  net charge                          0          :
          :  unpaired electrons                  0          :
          ...................................................

 iter      E             dE          RMSdq      gap      omega  full diag
   1    -22.8577868 -0.228578E+02  0.403E-05    4.08       0.0  T
   2    -22.8577868 -0.328271E-11  0.216E-05    4.08    1120.9  T
   3    -22.8577868 -0.316192E-12  0.121E-05    4.08    2010.3  T

   *** convergence criteria satisfied after 3 iterations ***

         #    Occupation            Energy/Eh            Energy/eV
      -------------------------------------------------------------
         1        2.0000           -0.6407312             -17.4352
       ...           ...                  ...                  ...
        15        2.0000           -0.4652673             -12.6606
        16        2.0000           -0.4542133             -12.3598
        17        2.0000           -0.4182595             -11.3814
        18        2.0000           -0.4154276             -11.3044
        19        2.0000           -0.3981416             -10.8340
        20        2.0000           -0.3930964             -10.6967
        21        2.0000           -0.3668310              -9.9820 (HOMO)
        22                         -0.2168182              -5.8999 (LUMO)
        23                         -0.2162309              -5.8839
        24                         -0.0878401              -2.3903
        25                          0.0530617               1.4439
        26                          0.1049558               2.8560
       ...                                ...                  ...
        41                          0.6702484              18.2384
      -------------------------------------------------------------
                  HL-Gap            0.1500128 Eh            4.0821 eV
             Fermi-level           -0.2918246 Eh           -7.9410 eV

 SCC (total)                   0 d,  0 h,  0 min,  0.007 sec
 SCC setup                      ...        0 min,  0.000 sec (  1.958%)
 Dispersion                     ...        0 min,  0.000 sec (  0.937%)
 classical contributions        ...        0 min,  0.000 sec (  0.323%)
 integral evaluation            ...        0 min,  0.000 sec (  6.353%)
 iterations                     ...        0 min,  0.003 sec ( 35.741%)
 molecular gradient             ...        0 min,  0.003 sec ( 45.096%)
 printout                       ...        0 min,  0.001 sec (  9.328%)

         :::::::::::::::::::::::::::::::::::::::::::::::::::::
         ::                     SUMMARY                     ::
         :::::::::::::::::::::::::::::::::::::::::::::::::::::
         :: total energy             -22.465951320529 Eh    ::
         :: gradient norm              0.000378493187 Eh/a0 ::
         :: HOMO-LUMO gap              4.082056072622 eV    ::
         ::.................................................::
         :: SCC energy               -22.857759639561 Eh    ::
         :: -> isotropic ES            0.011434928392 Eh    ::
         :: -> anisotropic ES          0.004502394321 Eh    ::
         :: -> anisotropic XC          0.017902759474 Eh    ::
         :: -> dispersion             -0.012634632506 Eh    ::
         :: repulsion energy           0.391808319033 Eh    ::
         :: add. restraining           0.000000000000 Eh    ::
         :: total charge               0.000000000000 e     ::
         :::::::::::::::::::::::::::::::::::::::::::::::::::::

           -------------------------------------------------
          |                Property Printout                |
           -------------------------------------------------

    * Orbital Energies and Occupations

         #    Occupation            Energy/Eh            Energy/eV
      -------------------------------------------------------------
         1        2.0000           -0.6407312             -17.4352
       ...           ...                  ...                  ...
         9        2.0000           -0.5140727             -13.9886
        10        2.0000           -0.5133759             -13.9697
        11        2.0000           -0.4919483             -13.3866
        12        2.0000           -0.4825264             -13.1302
        13        2.0000           -0.4759170             -12.9504
        14        2.0000           -0.4700797             -12.7915
        15        2.0000           -0.4652673             -12.6606
        16        2.0000           -0.4542133             -12.3598
        17        2.0000           -0.4182595             -11.3814
        18        2.0000           -0.4154276             -11.3044
        19        2.0000           -0.3981416             -10.8340
        20        2.0000           -0.3930964             -10.6967
        21        2.0000           -0.3668310              -9.9820 (HOMO)
        22                         -0.2168182              -5.8999 (LUMO)
        23                         -0.2162309              -5.8839
        24                         -0.0878401              -2.3903
        25                          0.0530617               1.4439
        26                          0.1049558               2.8560
        27                          0.1192786               3.2457
        28                          0.1472242               4.0062
        29                          0.1587565               4.3200
        30                          0.1650107               4.4902
        31                          0.1732299               4.7138
        32                          0.2017909               5.4910
       ...                                ...                  ...
        41                          0.6702484              18.2384
      -------------------------------------------------------------
                  HL-Gap            0.1500128 Eh            4.0821 eV
             Fermi-level           -0.2918246 Eh           -7.9410 eV

     #   Z          covCN         q      C6AA      α(0)
     1   7 N        2.630    -0.337    28.672     7.953
     2   6 C        3.736     0.021    20.302     6.430
     3   6 C        2.971     0.007    27.865     8.659
     4   6 C        2.925    -0.035    28.876     8.812
     5   6 C        2.920    -0.030    28.755     8.794
     6   6 C        2.920    -0.033    28.828     8.805
     7   6 C        2.919    -0.031    28.772     8.796
     8   6 C        2.924    -0.040    28.988     8.829
     9   1 H        0.860     0.135     1.508     1.924
    10   1 H        0.860     0.136     1.498     1.917
    11   1 H        0.923     0.006     2.953     2.687
    12   1 H        0.924     0.040     2.443     2.444
    13   1 H        0.926     0.050     2.325     2.385
    14   1 H        0.926     0.030     2.589     2.516
    15   1 H        0.926     0.028     2.613     2.528
    16   1 H        0.926     0.028     2.612     2.527
    17   1 H        0.925     0.025     2.663     2.552

 Mol. C6AA /au·bohr⁶  :       3099.159552
 Mol. C8AA /au·bohr⁸  :      72724.730601
 Mol. α(0) /au        :         88.558004


Wiberg/Mayer (AO) data.
largest (>0.10) Wiberg bond orders for each atom

 ---------------------------------------------------------------------------
     #   Z sym  total        # sym  WBO       # sym  WBO       # sym  WBO
 ---------------------------------------------------------------------------
     1   7 N    3.003 --     2 C    1.021    10 H    0.969     9 H    0.969
     2   6 C    3.987 --     1 N    1.021     3 C    1.005    11 H    0.966
                            12 H    0.959
     3   6 C    3.988 --     8 C    1.418     4 C    1.411     2 C    1.005
                             6 C    0.110
     4   6 C    3.991 --     5 C    1.448     3 C    1.411    13 H    0.967
                             7 C    0.112
     5   6 C    3.993 --     4 C    1.448     6 C    1.436    14 H    0.971
                             8 C    0.111
     6   6 C    3.993 --     7 C    1.441     5 C    1.436    15 H    0.972
                             3 C    0.110
     7   6 C    3.992 --     8 C    1.442     6 C    1.441    16 H    0.971
                             4 C    0.112
     8   6 C    3.992 --     7 C    1.442     3 C    1.418    17 H    0.969
                             5 C    0.111
     9   1 H    0.981 --     1 N    0.969
    10   1 H    0.981 --     1 N    0.969
    11   1 H    1.000 --     2 C    0.966
    12   1 H    0.998 --     2 C    0.959
    13   1 H    0.998 --     4 C    0.967
    14   1 H    0.999 --     5 C    0.971
    15   1 H    0.999 --     6 C    0.972
    16   1 H    0.999 --     7 C    0.971
    17   1 H    0.999 --     8 C    0.969
 ---------------------------------------------------------------------------

Topologies differ in total number of bonds
Writing topology from bond orders to xtbtopo.mol

molecular dipole:
                 x           y           z       tot (Debye)
 q only:       -0.130      -0.036       0.117
   full:       -0.362      -0.336       0.247       1.403
molecular quadrupole (traceless):
                xx          xy          yy          xz          yz          zz
 q only:       -1.007      -0.414       0.199       0.315      -0.335       0.808
  q+dip:       -4.595      -2.007       1.633      -0.650      -0.033       2.962
   full:       -2.581      -2.313       0.146       0.680       0.093       2.435

           -------------------------------------------------
          |                Geometry Summary                 |
           -------------------------------------------------

      molecular mass/u    :      107.1533213
   center of mass at/Å    :        3.1142559      -0.0869731      -1.9998133
  moments of inertia/u·Å² :        0.1043828E+03   0.3347196E+03   0.4235944E+03
rotational constants/cm⁻¹ :        0.1614981E+00   0.5036344E-01   0.3979664E-01

 * 16 selected distances

     #   Z          #   Z                                           value/Å
     1   7 N        2   6 C                                       1.4562135 (max)
     3   6 C        4   6 C                                       1.3890161
     4   6 C        5   6 C                                       1.3828787
     5   6 C        6   6 C                                       1.3848885
     6   6 C        7   6 C                                       1.3840241
     3   6 C        8   6 C                                       1.3880792
     7   6 C        8   6 C                                       1.3840817
     1   7 N        9   1 H                                       1.0139294 (min)
     1   7 N       10   1 H                                       1.0152770
     2   6 C       11   1 H                                       1.1040406
     2   6 C       12   1 H                                       1.0969779
     4   6 C       13   1 H                                       1.0789826
     5   6 C       14   1 H                                       1.0804694
     6   6 C       15   1 H                                       1.0802520
     7   6 C       16   1 H                                       1.0805104
     8   6 C       17   1 H                                       1.0815046

 * 4 distinct bonds (by element types)

   Z      Z             #   av. dist./Å        max./Å        min./Å
   1 H    6 C           7     1.0861054     1.1040406     1.0789826
   6 C    6 C           6     1.3854947     1.3890161     1.3828787
   1 H    7 N           2     1.0146032     1.0152770     1.0139294
   6 C    7 N           1     1.4562135     1.4562135     1.4562135


optimized geometry written to: xtbopt.xyz


           -------------------------------------------------
          | TOTAL ENERGY              -22.465951320529 Eh   |
          | GRADIENT NORM               0.000378493187 Eh/α |
          | HOMO-LUMO GAP               4.082056072622 eV   |
           -------------------------------------------------

------------------------------------------------------------------------
 * finished run on 2026/09/29 at 15:12:07.680     
------------------------------------------------------------------------
 total:
 * wall-time:     0 d,  0 h,  0 min,  0.336 sec
 *  cpu-time:     0 d,  0 h,  0 min,  0.212 sec
 * ratio c/w:     0.631 speedup
 SCF:
 * wall-time:     0 d,  0 h,  0 min,  0.014 sec
 *  cpu-time:     0 d,  0 h,  0 min,  0.011 sec
 * ratio c/w:     0.811 speedup
 ANC optimizer:
 * wall-time:     0 d,  0 h,  0 min,  0.312 sec
 *  cpu-time:     0 d,  0 h,  0 min,  0.192 sec
 * ratio c/w:     0.617 speedup

