17
 energy: -22.465951320529 gnorm: 0.000378493187 xtb: 6.7.1 (edcfbbe)
N            1.46456526600375        0.99919093649610       -0.02875781239223
C            2.39820790171502       -0.11599052227360       -0.10113903618829
C            3.00962551423159       -0.21392098116016       -1.47456340393144
C            3.29576824954577        0.94022156083411       -2.19250674974452
C            3.86409145944345        0.86010240817795       -3.45065732191097
C            4.15819726711188       -0.37478768436800       -4.00424928651409
C            3.87785313964961       -1.52897334603350       -3.29376716386497
C            3.30365428286242       -1.44841959495564       -2.03699010899016
H            1.06803071228074        1.06693913122061        0.90195333692638
H            0.70275400482332        0.85793479057036       -0.68486568371088
H            1.94306769190395       -1.08684258116084        0.16191804941733
H            3.19416019576468        0.08115252119669        0.62752742172351
H            3.06020241050257        1.89638237134306       -1.75152094698565
H            4.08057979712916        1.76406879025389       -4.00146715035229
H            4.60329917432986       -0.43799904455371       -4.98650827259003
H            4.10301260616301       -2.49583003038583       -3.72037461091943
H            3.08338063704823       -2.35359625715281       -1.48763885406128
