10
 energy: -10.744164965273 gnorm: 0.000200289549 xtb: 6.7.1 (edcfbbe)
N            0.00000005111362       -0.00000001960678        0.31818870259677
H            0.00000004439294        0.00000000380427        1.31545294968943
C            1.23309849876358       -0.00000001157156       -0.40231090866631
C           -1.23309843210796        0.00000002954046       -0.40231084796279
H            1.32036663947586        0.88728116377519       -1.04686028804416
H            1.32036676045613       -0.88728129860227       -1.04686013354960
H            2.06786642099904        0.00000010560793        0.29421090741216
H           -1.32036663633017        0.88728126790654       -1.04686013932881
H           -1.32036670966334       -0.88728119498291       -1.04686014911355
H           -2.06786631401922        0.00000007846128        0.29421101618738
