      -----------------------------------------------------------      
     |                   =====================                   |     
     |                           x T B                           |     
     |                   =====================                   |     
     |                         S. Grimme                         |     
     |          Mulliken Center for Theoretical Chemistry        |     
     |                    University of Bonn                     |     
      -----------------------------------------------------------      

   * xtb version 6.7.1 (edcfbbe) compiled by 'runner@Mac-1732539442253.local' on 2024-11-25

   xtb is free software: you can redistribute it and/or modify it under
   the terms of the GNU Lesser General Public License as published by
   the Free Software Foundation, either version 3 of the License, or
   (at your option) any later version.
   
   xtb is distributed in the hope that it will be useful,
   but WITHOUT ANY WARRANTY; without even the implied warranty of
   MERCHANTABILITY or FITNESS FOR A PARTICULAR PURPOSE.  See the
   GNU Lesser General Public License for more details.
   
   Cite this work as:
   * C. Bannwarth, E. Caldeweyher, S. Ehlert, A. Hansen, P. Pracht,
     J. Seibert, S. Spicher, S. Grimme, WIREs Comput. Mol. Sci., 2020, 11,
     e01493. DOI: 10.1002/wcms.1493
   
   for GFN2-xTB:
   * C. Bannwarth, S. Ehlert and S. Grimme., J. Chem. Theory Comput., 2019,
     15, 1652-1671. DOI: 10.1021/acs.jctc.8b01176
   for GFN1-xTB:
   * S. Grimme, C. Bannwarth, P. Shushkov, J. Chem. Theory Comput., 2017,
     13, 1989-2009. DOI: 10.1021/acs.jctc.7b00118
   for GFN0-xTB:
   * P. Pracht, E. Caldeweyher, S. Ehlert, S. Grimme, ChemRxiv, 2019, preprint.
     DOI: 10.26434/chemrxiv.8326202.v1
   for GFN-FF:
   * S. Spicher and S. Grimme, Angew. Chem. Int. Ed., 2020, 59, 15665-15673.
     DOI: 10.1002/anie.202004239
   
   for ALPB and GBSA implicit solvation:
   * S. Ehlert, M. Stahn, S. Spicher, S. Grimme, J. Chem. Theory Comput.,
     2021, 17, 4250-4261. DOI: 10.1021/acs.jctc.1c00471
   
   for ddCOSMO and CPCM-X implicit solvation:
   * M. Stahn, S. Ehlert, S. Grimme, J. Phys. Chem. A,
     2023, XX, XXXX-XXXX. DOI: 10.1021/acs.jpca.3c04382
   
   for DFT-D4:
   * E. Caldeweyher, C. Bannwarth and S. Grimme, J. Chem. Phys., 2017,
     147, 034112. DOI: 10.1063/1.4993215
   * E. Caldeweyher, S. Ehlert, A. Hansen, H. Neugebauer, S. Spicher,
     C. Bannwarth and S. Grimme, J. Chem. Phys., 2019, 150, 154122.
     DOI: 10.1063/1.5090222
   * E. Caldeweyher, J.-M. Mewes, S. Ehlert and S. Grimme, Phys. Chem. Chem. Phys.
     2020, 22, 8499-8512. DOI: 10.1039/D0CP00502A
   
   for sTDA-xTB:
   * S. Grimme and C. Bannwarth, J. Chem. Phys., 2016, 145, 054103.
     DOI: 10.1063/1.4959605
   
   in the mass-spec context:
   * V. Asgeirsson, C. Bauer and S. Grimme, Chem. Sci., 2017, 8, 4879.
     DOI: 10.1039/c7sc00601b
   * J. Koopman and S. Grimme, ACS Omega 2019, 4, 12, 15120-15133.
     DOI: 10.1021/acsomega.9b02011
   
   for metadynamics refer to:
   * S. Grimme, J. Chem. Theory Comput., 2019, 155, 2847-2862
     DOI: 10.1021/acs.jctc.9b00143
   
   for SPH calculations refer to:
   * S. Spicher and S. Grimme, J. Chem. Theory Comput., 2021, 17, 1701-1714
     DOI: 10.1021/acs.jctc.0c01306
   
   for ONIOM refer to:
   * C. Plett, A. Katbashev, S. Ehlert, S. Grimme, M. Bursch,
     Phys. Chem. Chem. Phys., 2023, 25, 17860-17868. DOI: 10.1039/D3CP02178E
   
   for DIPRO refer to:
   * J. Kohn, N. Gildemeister, S. Grimme, D. Fazzi, A. Hansen,
     J. Chem. Phys., 2023, just accepted.
   
   for PTB refer to:
   * S. Grimme, M. Mueller, A. Hansen, J. Chem. Phys., 2023, 158, 124111.
     DOI: 10.1063/5.0137838
   
   with help from (in alphabetical order)
   P. Atkinson, C. Bannwarth, F. Bohle, G. Brandenburg, E. Caldeweyher
   M. Checinski, S. Dohm, S. Ehlert, S. Ehrlich, I. Gerasimov, C. Hölzer
   A. Katbashev, J. Kohn, J. Koopman, C. Lavigne, S. Lehtola, F. März, M. Müller,
   F. Musil, H. Neugebauer, J. Pisarek, C. Plett, P. Pracht, F. Pultar,
   J. Seibert, P. Shushkov, S. Spicher, M. Stahn, M. Steiner, T. Strunk,
   J. Stückrath, T. Rose, and J. Unsleber
   
 * started run on 2026/09/30 at 15:17:23.876     
   ID    Z sym.   atoms
    1    6 C      1-3, 5-10
    2    7 N      4
    3    1 H      11-19

           -------------------------------------------------
          |                Calculation Setup                |
           -------------------------------------------------

          program call               : xtb in.xyz --opt tight --input xcontrol --chrg 1 --uhf 1
          coordinate file            : in.xyz
          omp threads                :                     4


           -------------------------------------------------
          |                 G F N 2 - x T B                 |
           -------------------------------------------------

        Reference                      10.1021/acs.jctc.8b01176
      * Hamiltonian:
        H0-scaling (s, p, d)           1.850000    2.230000    2.230000
        zeta-weighting                 0.500000
      * Dispersion:
        s8                             2.700000
        a1                             0.520000
        a2                             5.000000
        s9                             5.000000
      * Repulsion:
        kExp                           1.500000    1.000000
        rExp                           1.000000
      * Coulomb:
        alpha                          2.000000
        third order                    shell-resolved
        anisotropic                    true
        a3                             3.000000
        a5                             4.000000
        cn-shift                       1.200000
        cn-exp                         4.000000
        max-rad                        5.000000


          ...................................................
          :                      SETUP                      :
          :.................................................:
          :  # basis functions                  49          :
          :  # atomic orbitals                  49          :
          :  # shells                           29          :
          :  # electrons                        49          :
          :  max. iterations                   250          :
          :  Hamiltonian                  GFN2-xTB          :
          :  restarted?                      false          :
          :  GBSA solvation                  false          :
          :  PC potential                    false          :
          :  electronic temp.          300.0000000     K    :
          :  accuracy                    1.0000000          :
          :  -> integral cutoff          0.2500000E+02      :
          :  -> integral neglect         0.1000000E-07      :
          :  -> SCF convergence          0.1000000E-05 Eh   :
          :  -> wf. convergence          0.1000000E-03 e    :
          :  Broyden damping             0.4000000          :
          :  net charge                          1          :
          :  unpaired electrons                  1          :
          ...................................................

 iter      E             dE          RMSdq      gap      omega  full diag
   1    -26.6915732 -0.266916E+02  0.486E+00    2.98       0.0  T
   2    -26.7770235 -0.854504E-01  0.336E+00    3.59       1.0  T
   3    -26.7895158 -0.124922E-01  0.170E+00    3.32       1.0  T
   4    -26.7745789  0.149369E-01  0.100E+00    3.51       1.0  T
   5    -26.7935136 -0.189347E-01  0.367E-01    3.39       1.0  T
   6    -26.7968143 -0.330072E-02  0.123E-01    3.44       1.0  T
   7    -26.7970289 -0.214538E-03  0.411E-02    3.45       1.0  T
   8    -26.7970404 -0.115643E-04  0.204E-02    3.45       1.1  T
   9    -26.7970409 -0.454769E-06  0.741E-03    3.44       3.1  T
  10    -26.7970418 -0.908404E-06  0.341E-03    3.45       6.7  T
  11    -26.7970420 -0.173639E-06  0.135E-03    3.45      17.0  T
  12    -26.7970420 -0.950093E-08  0.421E-04    3.45      54.4  T
  13    -26.7970420 -0.227599E-08  0.152E-04    3.45     151.2  T

   *** convergence criteria satisfied after 13 iterations ***

         #    Occupation            Energy/Eh            Energy/eV
      -------------------------------------------------------------
         1        2.0000           -0.8687571             -23.6401
       ...           ...                  ...                  ...
        19        2.0000           -0.6397950             -17.4097
        20        2.0000           -0.6164746             -16.7751
        21        2.0000           -0.6008356             -16.3496
        22        2.0000           -0.5951680             -16.1953
        23        2.0000           -0.5925108             -16.1230
        24        2.0000           -0.5707565             -15.5311
        25        1.0000           -0.5505554             -14.9814 (HOMO)
        26                         -0.4239473             -11.5362 (LUMO)
        27                         -0.3813916             -10.3782
        28                         -0.3528204              -9.6007
        29                         -0.2600239              -7.0756
        30                         -0.1622648              -4.4155
       ...                                ...                  ...
        49                          0.5092029              13.8561
      -------------------------------------------------------------
                  HL-Gap            0.1266082 Eh            3.4452 eV
             Fermi-level           -0.5239537 Eh          -14.2575 eV

 SCC (total)                   0 d,  0 h,  0 min,  0.029 sec
 SCC setup                      ...        0 min,  0.003 sec ( 10.918%)
 Dispersion                     ...        0 min,  0.001 sec (  4.784%)
 classical contributions        ...        0 min,  0.000 sec (  1.547%)
 integral evaluation            ...        0 min,  0.002 sec (  8.164%)
 iterations                     ...        0 min,  0.016 sec ( 56.277%)
 molecular gradient             ...        0 min,  0.003 sec ( 10.318%)
 printout                       ...        0 min,  0.002 sec (  7.887%)

         :::::::::::::::::::::::::::::::::::::::::::::::::::::
         ::                     SUMMARY                     ::
         :::::::::::::::::::::::::::::::::::::::::::::::::::::
         :: total energy             -26.332556788132 Eh    ::
         :: gradient norm              0.066750007628 Eh/a0 ::
         :: HOMO-LUMO gap              3.445183905144 eV    ::
         ::.................................................::
         :: SCC energy               -26.796996050531 Eh    ::
         :: -> isotropic ES            0.082100479849 Eh    ::
         :: -> anisotropic ES         -0.015557879065 Eh    ::
         :: -> anisotropic XC          0.020194200817 Eh    ::
         :: -> dispersion             -0.015132808560 Eh    ::
         :: repulsion energy           0.464439262399 Eh    ::
         :: add. restraining           0.000000000000 Eh    ::
         :: total charge               1.000000000000 e     ::
         :::::::::::::::::::::::::::::::::::::::::::::::::::::

      ----------------------------------------------------------- 
     |                       L-ANC optimizer                     |
      ----------------------------------------------------------- 
          low memory version by Sebastian Ehlert

          ...................................................
          :                      SETUP                      :
          :.................................................:
          :   energy convergence        0.1000000E-05 Eh    :
          :   grad. convergence         0.8000000E-03 Eh/a0 :
          :   optimization log               true           :
          :   writing optlog all                1     steps :
          :   Hessian reset                    20     steps :
          :   maximium step len.        1.0000000     a0    :
          :   LBFGS images                     20           :
          ...................................................
 * calculating model hessian...
Using Lindh-Hessian (1995)
 Shifting diagonal of input Hessian by    1.0000000000000000E-002
 Lowest  eigenvalues of input Hessian
    0.000000    0.000000    0.000000    0.000000    0.000000    0.000000
    0.013498    0.016532    0.020248    0.020612    0.025011    0.028016
    0.031349    0.043778    0.051854    0.057473    0.071064    0.072759
 Highest eigenvalues
    1.724339    1.837616    1.944335    1.959255    2.052235    2.157653


........................................................................
.............................. CYCLE    1 ..............................
........................................................................

 iter      E             dE          RMSdq      gap      omega  full diag
   1    -26.8092405 -0.268092E+02  0.195E-01    3.40       0.0  T
   2    -26.8089403  0.300166E-03  0.166E-01    3.43       1.0  T
   3    -26.8094304 -0.490084E-03  0.103E-01    3.41       1.0  T
   4    -26.8095577 -0.127306E-03  0.242E-02    3.42       1.0  T
   5    -26.8095622 -0.450169E-05  0.703E-03    3.42       3.3  T
   6    -26.8095630 -0.865453E-06  0.294E-03    3.42       7.8  T
   7    -26.8095631 -0.497032E-07  0.131E-03    3.42      17.5  T
   8    -26.8095631 -0.227439E-07  0.387E-04    3.42      59.2  T
   9    -26.8095631 -0.763976E-09  0.185E-04    3.42     124.1  T
     SCC iter.                  ...        0 min,  0.007 sec
     gradient                   ...        0 min,  0.003 sec
 * total energy  :   -26.3354698 Eh     change       -0.2913023E-02 Eh
   gradient norm :     0.0329154 Eh/a0  converged?    E=F G=F D=F
   step length   :     0.1213736 a0

........................................................................
.............................. CYCLE    2 ..............................
........................................................................

 iter      E             dE          RMSdq      gap      omega  full diag
   1    -26.8159689 -0.268160E+02  0.135E-01    3.36       0.0  T
   2    -26.8158887  0.802019E-04  0.106E-01    3.38       1.0  T
   3    -26.8160874 -0.198760E-03  0.653E-02    3.36       1.0  T
   4    -26.8161335 -0.460523E-04  0.209E-02    3.37       1.1  T
   5    -26.8161365 -0.298386E-05  0.701E-03    3.37       3.3  T
   6    -26.8161375 -0.108258E-05  0.190E-03    3.37      12.1  T
   7    -26.8161376 -0.274262E-07  0.960E-04    3.37      23.9  T
   8    -26.8161376 -0.932499E-08  0.243E-04    3.37      94.6  T
     SCC iter.                  ...        0 min,  0.007 sec
     gradient                   ...        0 min,  0.002 sec
 * total energy  :   -26.3361900 Eh     change       -0.7201465E-03 Eh
   gradient norm :     0.0069717 Eh/a0  converged?    E=F G=F D=F
   step length   :     0.0805242 a0

........................................................................
.............................. CYCLE    3 ..............................
........................................................................

 iter      E             dE          RMSdq      gap      omega  full diag
   1    -26.8150878 -0.268151E+02  0.331E-02    3.36       0.0  T
   2    -26.8150878 -0.369814E-07  0.183E-02    3.36       1.3  T
   3    -26.8150859  0.187296E-05  0.166E-02    3.36       1.4  T
   4    -26.8150888 -0.282790E-05  0.344E-03    3.36       6.7  T
   5    -26.8150891 -0.321930E-06  0.623E-04    3.36      36.8  T
   6    -26.8150891 -0.432335E-08  0.319E-04    3.36      71.8  T
     SCC iter.                  ...        0 min,  0.005 sec
     gradient                   ...        0 min,  0.002 sec
 * total energy  :   -26.3362441 Eh     change       -0.5414413E-04 Eh
   gradient norm :     0.0036763 Eh/a0  converged?    E=F G=F D=F
   step length   :     0.0246272 a0

........................................................................
.............................. CYCLE    4 ..............................
........................................................................

 iter      E             dE          RMSdq      gap      omega  full diag
   1    -26.8140402 -0.268140E+02  0.403E-02    3.35       0.0  T
   2    -26.8140407 -0.505652E-06  0.225E-02    3.34       1.0  T
   3    -26.8140387  0.192983E-05  0.173E-02    3.35       1.3  T
   4    -26.8140418 -0.304518E-05  0.198E-03    3.35      11.6  T
   5    -26.8140419 -0.750484E-07  0.596E-04    3.35      38.5  T
   6    -26.8140419 -0.221625E-08  0.327E-04    3.35      70.1  T
     SCC iter.                  ...        0 min,  0.005 sec
     gradient                   ...        0 min,  0.003 sec
 * total energy  :   -26.3362698 Eh     change       -0.2571923E-04 Eh
   gradient norm :     0.0009265 Eh/a0  converged?    E=F G=F D=F
   step length   :     0.0349187 a0

........................................................................
.............................. CYCLE    5 ..............................
........................................................................

 iter      E             dE          RMSdq      gap      omega  full diag
   1    -26.8142527 -0.268143E+02  0.744E-03    3.35       0.0  T
   2    -26.8142527 -0.188859E-07  0.430E-03    3.35       5.3  T
   3    -26.8142526  0.111460E-06  0.309E-03    3.35       7.4  T
   4    -26.8142527 -0.136575E-06  0.676E-04    3.35      33.9  T
   5    -26.8142527 -0.112224E-07  0.219E-04    3.35     104.9  T
     SCC iter.                  ...        0 min,  0.004 sec
     gradient                   ...        0 min,  0.002 sec
 * total energy  :   -26.3362717 Eh     change       -0.1837963E-05 Eh
   gradient norm :     0.0003809 Eh/a0  converged?    E=F G=T D=F
   step length   :     0.0122639 a0

........................................................................
.............................. CYCLE    6 ..............................
........................................................................

 iter      E             dE          RMSdq      gap      omega  full diag
   1    -26.8144010 -0.268144E+02  0.625E-03    3.35       0.0  T
   2    -26.8144010 -0.398424E-08  0.366E-03    3.35       6.3  T
   3    -26.8144009  0.960456E-08  0.718E-04    3.35      31.9  T
   4    -26.8144010 -0.105341E-07  0.205E-04    3.35     112.0  T
     SCC iter.                  ...        0 min,  0.004 sec
     gradient                   ...        0 min,  0.003 sec
 * total energy  :   -26.3362723 Eh     change       -0.6753773E-06 Eh
   gradient norm :     0.0002230 Eh/a0  converged?    E=T G=T D=F
   step length   :     0.0113706 a0

   *** GEOMETRY OPTIMIZATION CONVERGED AFTER 6 CYCLES ***

------------------------------------------------------------------------
 total energy gain   :        -0.0037155 Eh       -2.3315 kcal/mol
 total RMSD          :         0.0483810 a0        0.0256 Å
 total power (kW/mol):        -1.6258606 (step) -146.0028 (real)
------------------------------------------------------------------------

 L-ANCopt (total)              0 d,  0 h,  0 min,  0.067 sec
 setup                          ...        0 min,  0.000 sec (  0.431%)
 model hessian                  ...        0 min,  0.002 sec (  2.280%)
 ANC generation                 ...        0 min,  0.002 sec (  2.283%)
 coordinate transformation      ...        0 min,  0.000 sec (  0.066%)
 Rational function              ...        0 min,  0.005 sec (  7.646%)
 singlepoint calculation        ...        0 min,  0.057 sec ( 85.701%)
 optimization log               ...        0 min,  0.001 sec (  1.079%)
 hessian update                 ...        0 min,  0.000 sec (  0.030%)

================
 final structure:
================
19
 xtb: 6.7.1 (edcfbbe)
C            2.57388079199359       -1.50944910216193        0.00843528757554
C            1.61763417598126       -0.39950834032842        0.00235735474648
C            1.93358509620278        0.97871610451826        0.00378924622619
N            0.81969777298041        1.70433582213659        0.00147623688823
C           -0.28506716683456        0.86871450822263       -0.00153881547356
C           -1.63074022118804        1.16357002848259       -0.00241908936645
C           -2.52565706634486        0.08260244930004       -0.00519371038111
C           -2.07682675462874       -1.22883577707649       -0.00696433761947
C           -0.71772872472845       -1.52672750526260       -0.00571296116069
C            0.19472604533043       -0.46643298570134       -0.00198144831059
H            3.59959747973540       -1.15340747348833       -0.01696584747664
H            2.39778336876524       -2.17087993564301       -0.84283109023823
H            2.43138396253630       -2.12880769902909        0.89757963036660
H            2.91195413016121        1.42328872954713        0.00610735848810
H            0.77683074891429        2.71491228394231        0.00104110586532
H           -1.99381062126489        2.17954986243172       -0.00074970330452
H           -3.58550958036752        0.28362248129874       -0.00627005057562
H           -2.79451435011201       -2.03390611593801       -0.00953142726391
H           -0.37616619793627       -2.55009309089657       -0.00761203734257

 Bond Distances (Angstroems)
 ---------------------------
C1-C2=1.4651         C1-H11=1.0861        C1-H12=1.0923        C1-H13=1.0929        C2-C1=1.4651         C2-C3=1.4140         
C2-C10=1.4245        C3-C2=1.4140         C3-N4=1.3294         C3-H14=1.0746        N4-C3=1.3294         N4-C5=1.3852         
N4-H15=1.0115        C5-N4=1.3852         C5-C6=1.3776         C5-C10=1.4187        C6-C5=1.3776         C6-C7=1.4033         
C6-H16=1.0789        C7-C6=1.4033         C7-C8=1.3861         C7-H17=1.0787        C8-C7=1.3861         C8-C9=1.3914         
C8-H18=1.0785        C9-C8=1.3914         C9-C10=1.3989        C9-H19=1.0789        C10-C2=1.4245        C10-C5=1.4187        
C10-C9=1.3989        H11-C1=1.0861        H12-C1=1.0923        H13-C1=1.0929        H14-C3=1.0746        H15-N4=1.0115        
H16-C6=1.0789        H17-C7=1.0787        H18-C8=1.0785        H19-C9=1.0789        
 C  H  Rav=1.0826 sigma=0.0065  Rmin=1.0746  Rmax=1.0929     8
 C  C  Rav=1.4088 sigma=0.0246  Rmin=1.3776  Rmax=1.4651     9
 N  H  Rav=1.0115 sigma=0.0000  Rmin=1.0115  Rmax=1.0115     1
 N  C  Rav=1.3573 sigma=0.0279  Rmin=1.3294  Rmax=1.3852     2

 selected bond angles (degree)
 --------------------
H11-C1-C2=111.59               H12-C1-C2=110.51               H12-C1-H11=109.42              H13-C1-C2=110.34               
H13-C1-H11=109.14              H13-C1-H12=105.65              C3-C2-C1=126.34                C10-C2-C1=128.05               
C10-C2-C3=105.60               N4-C3-C2=110.17                H14-C3-C2=127.35               H14-C3-N4=122.48               
C5-N4-C3=109.82                H15-N4-C3=125.51               H15-N4-C5=124.67               C6-C5-N4=130.54                
C10-C5-N4=107.34               C10-C5-C6=122.13               C7-C6-C5=117.26                H16-C6-C5=122.02               
H16-C6-C7=120.71               C8-C7-C6=121.49                H17-C7-C6=118.88               H17-C7-C8=119.63               
C9-C8-C7=121.26                H18-C8-C7=119.39               H18-C8-C9=119.35               C10-C9-C8=118.35               
H19-C9-C8=120.82               H19-C9-C10=120.83              C5-C10-C2=107.07               C9-C10-C2=133.41               
C9-C10-C5=119.52               

 selected dihedral angles (degree)
 ---------------------------------
C3-C2-C1-H11=358.22           C3-C2-C1-H12=236.22           C3-C2-C1-H13=119.74           C10-C2-C1-H11=178.43          
C10-C2-C1-H12= 56.43          C10-C2-C1-H13=299.95          N4-C3-C2-C1=180.21            N4-C3-C2-C10=  0.04           
H14-C3-C2-C1=  0.23           H14-C3-C2-C10=180.05          C5-N4-C3-C2=  0.00            C5-N4-C3-H14=179.99           
H15-N4-C3-C2=180.06           H15-N4-C3-H14=  0.04          C6-C5-N4-C3=179.88            C6-C5-N4-H15=359.83           
C10-C5-N4-C3=359.96           C10-C5-N4-H15=179.90          C7-C6-C5-N4=180.02            C7-C6-C5-C10=359.94           
H16-C6-C5-N4=  0.00           H16-C6-C5-C10=179.92          C8-C7-C6-C5=  0.00            C8-C7-C6-H16=180.02           
H17-C7-C6-C5=180.02           H17-C7-C6-H16=  0.04          C9-C8-C7-C6=  0.00            C9-C8-C7-H17=180.00           
H18-C8-C7-C6=180.03           H18-C8-C7-H17=  0.00          C10-C9-C8-C7=  0.03           C10-C9-C8-H18=180.02          
H19-C9-C8-C7=180.03           H19-C9-C8-H18=  0.00          C5-C10-C2-C1=179.76           C5-C10-C2-C3=359.94           
C9-C10-C2-C1=359.79           C9-C10-C2-C3=179.97           C2-C10-C5-N4=  0.06           C2-C10-C5-C6=180.13           
C9-C10-C5-N4=180.04           C9-C10-C5-C6=  0.11           C2-C10-C9-C8=179.88           C2-C10-C9-H19=359.88          
C5-C10-C9-C8=359.91           C5-C10-C9-H19=179.91          
           -------------------------------------------------
          |                Final Singlepoint                |
           -------------------------------------------------

          ...................................................
          :                      SETUP                      :
          :.................................................:
          :  # basis functions                  49          :
          :  # atomic orbitals                  49          :
          :  # shells                           29          :
          :  # electrons                        49          :
          :  max. iterations                   250          :
          :  Hamiltonian                  GFN2-xTB          :
          :  restarted?                      false          :
          :  GBSA solvation                  false          :
          :  PC potential                    false          :
          :  electronic temp.          300.0000000     K    :
          :  accuracy                    1.0000000          :
          :  -> integral cutoff          0.2500000E+02      :
          :  -> integral neglect         0.1000000E-07      :
          :  -> SCF convergence          0.1000000E-05 Eh   :
          :  -> wf. convergence          0.1000000E-03 e    :
          :  Broyden damping             0.4000000          :
          :  net charge                          1          :
          :  unpaired electrons                  1          :
          ...................................................

 iter      E             dE          RMSdq      gap      omega  full diag
   1    -26.8144010 -0.268144E+02  0.931E-05    3.35       0.0  T
   2    -26.8144010  0.642721E-10  0.856E-05    3.35     267.9  T
   3    -26.8144010 -0.137582E-09  0.382E-05    3.35     600.0  T

   *** convergence criteria satisfied after 3 iterations ***

         #    Occupation            Energy/Eh            Energy/eV
      -------------------------------------------------------------
         1        2.0000           -0.8715170             -23.7152
       ...           ...                  ...                  ...
        19        2.0000           -0.6411294             -17.4460
        20        2.0000           -0.6175713             -16.8050
        21        2.0000           -0.5985367             -16.2870
        22        2.0000           -0.5944749             -16.1765
        23        2.0000           -0.5917880             -16.1034
        24        2.0000           -0.5709507             -15.5364
        25        1.0000           -0.5454039             -14.8412 (HOMO)
        26                         -0.4224121             -11.4944 (LUMO)
        27                         -0.3794833             -10.3263
        28                         -0.3531603              -9.6100
        29                         -0.2573483              -7.0028
        30                         -0.1567902              -4.2665
       ...                                ...                  ...
        49                          0.5285488              14.3825
      -------------------------------------------------------------
                  HL-Gap            0.1229918 Eh            3.3468 eV
             Fermi-level           -0.5210427 Eh          -14.1783 eV

 SCC (total)                   0 d,  0 h,  0 min,  0.007 sec
 SCC setup                      ...        0 min,  0.000 sec (  1.590%)
 Dispersion                     ...        0 min,  0.000 sec (  1.553%)
 classical contributions        ...        0 min,  0.000 sec (  1.109%)
 integral evaluation            ...        0 min,  0.002 sec ( 22.272%)
 iterations                     ...        0 min,  0.003 sec ( 41.139%)
 molecular gradient             ...        0 min,  0.002 sec ( 27.954%)
 printout                       ...        0 min,  0.000 sec (  4.052%)

         :::::::::::::::::::::::::::::::::::::::::::::::::::::
         ::                     SUMMARY                     ::
         :::::::::::::::::::::::::::::::::::::::::::::::::::::
         :: total energy             -26.336272334620 Eh    ::
         :: gradient norm              0.000222302718 Eh/a0 ::
         :: HOMO-LUMO gap              3.346777035554 eV    ::
         ::.................................................::
         :: SCC energy               -26.814353740465 Eh    ::
         :: -> isotropic ES            0.082401642814 Eh    ::
         :: -> anisotropic ES         -0.015403688487 Eh    ::
         :: -> anisotropic XC          0.019471036045 Eh    ::
         :: -> dispersion             -0.015189052784 Eh    ::
         :: repulsion energy           0.478081405845 Eh    ::
         :: add. restraining           0.000000000000 Eh    ::
         :: total charge               1.000000000000 e     ::
         :::::::::::::::::::::::::::::::::::::::::::::::::::::

           -------------------------------------------------
          |                Property Printout                |
           -------------------------------------------------

    * Orbital Energies and Occupations

         #    Occupation            Energy/Eh            Energy/eV
      -------------------------------------------------------------
         1        2.0000           -0.8715170             -23.7152
       ...           ...                  ...                  ...
        13        2.0000           -0.6801143             -18.5069
        14        2.0000           -0.6663378             -18.1320
        15        2.0000           -0.6554528             -17.8358
        16        2.0000           -0.6502608             -17.6945
        17        2.0000           -0.6497323             -17.6801
        18        2.0000           -0.6416244             -17.4595
        19        2.0000           -0.6411294             -17.4460
        20        2.0000           -0.6175713             -16.8050
        21        2.0000           -0.5985367             -16.2870
        22        2.0000           -0.5944749             -16.1765
        23        2.0000           -0.5917880             -16.1034
        24        2.0000           -0.5709507             -15.5364
        25        1.0000           -0.5454039             -14.8412 (HOMO)
        26                         -0.4224121             -11.4944 (LUMO)
        27                         -0.3794833             -10.3263
        28                         -0.3531603              -9.6100
        29                         -0.2573483              -7.0028
        30                         -0.1567902              -4.2665
        31                         -0.0681713              -1.8550
        32                         -0.0523551              -1.4247
        33                         -0.0320447              -0.8720
        34                         -0.0188406              -0.5127
        35                         -0.0059202              -0.1611
        36                          0.0020118               0.0547
       ...                                ...                  ...
        49                          0.5285488              14.3825
      -------------------------------------------------------------
                  HL-Gap            0.1229918 Eh            3.3468 eV
             Fermi-level           -0.5210427 Eh          -14.1783 eV

     #   Z          covCN         q      C6AA      α(0)
     1   6 C        3.754    -0.128    23.008     6.840
     2   6 C        3.047     0.051    26.817     8.493
     3   6 C        3.017     0.035    27.196     8.554
     4   7 N        2.766    -0.023    21.687     6.916
     5   6 C        3.084     0.058    26.617     8.457
     6   6 C        2.906    -0.010    28.265     8.718
     7   6 C        2.922     0.001    28.001     8.678
     8   6 C        2.914    -0.013    28.349     8.731
     9   6 C        2.910     0.008    27.830     8.650
    10   6 C        3.089    -0.000    27.926     8.662
    11   1 H        0.925     0.092     1.862     2.134
    12   1 H        0.924     0.118     1.627     1.995
    13   1 H        0.924     0.120     1.611     1.985
    14   1 H        0.926     0.107     1.723     2.052
    15   1 H        0.860     0.217     1.023     1.585
    16   1 H        0.926     0.088     1.897     2.154
    17   1 H        0.926     0.096     1.825     2.113
    18   1 H        0.926     0.092     1.857     2.131
    19   1 H        0.926     0.091     1.874     2.141

 Mol. C6AA /au·bohr⁶  :       3986.638673
 Mol. C8AA /au·bohr⁸  :      98716.968085
 Mol. α(0) /au        :        100.989386


Wiberg/Mayer (AO) data.
largest (>0.10) Wiberg bond orders for each atom

 ---------------------------------------------------------------------------
     #   Z sym  total        # sym  WBO       # sym  WBO       # sym  WBO
 ---------------------------------------------------------------------------
     1   6 C    3.978 --     2 C    1.106    11 H    0.976    12 H    0.917
                            13 H    0.912
     2   6 C    3.922 --     3 C    1.311    10 C    1.238     1 C    1.106
     3   6 C    3.929 --     4 N    1.424     2 C    1.311    14 H    0.958
     4   7 N    3.652 --     3 C    1.424     5 C    1.107    15 H    0.924
     5   6 C    3.955 --     6 C    1.421    10 C    1.235     4 N    1.107
     6   6 C    3.960 --     5 C    1.421     7 C    1.345    16 H    0.962
     7   6 C    3.956 --     8 C    1.461     6 C    1.345    17 H    0.964
     8   6 C    3.984 --     7 C    1.461     9 C    1.412    18 H    0.963
     9   6 C    3.953 --     8 C    1.412    10 C    1.318    19 H    0.963
    10   6 C    3.987 --     9 C    1.318     2 C    1.238     5 C    1.235
    11   1 H    0.991 --     1 C    0.976
    12   1 H    0.976 --     1 C    0.917
    13   1 H    0.974 --     1 C    0.912
    14   1 H    0.988 --     3 C    0.958
    15   1 H    0.952 --     4 N    0.924
    16   1 H    0.992 --     6 C    0.962
    17   1 H    0.991 --     7 C    0.964
    18   1 H    0.991 --     8 C    0.963
    19   1 H    0.991 --     9 C    0.963
 ---------------------------------------------------------------------------

Topologies differ in total number of bonds
Writing topology from bond orders to xtbtopo.mol

molecular dipole:
                 x           y           z       tot (Debye)
 q only:        0.751       0.253       0.008
   full:        0.820       0.540       0.010       2.494
molecular quadrupole (traceless):
                xx          xy          yy          xz          yz          zz
 q only:       11.067      -0.589       5.100       0.120      -0.028     -16.168
  q+dip:       11.811       0.274       8.747       0.138      -0.025     -20.557
   full:        9.974       0.221       6.748       0.127      -0.033     -16.722

           -------------------------------------------------
          |                Geometry Summary                 |
           -------------------------------------------------

      molecular mass/u    :      131.1747931
   center of mass at/Å    :        0.0295132      -0.0309584      -0.0005278
  moments of inertia/u·Å² :        0.1926470E+03   0.3937643E+03   0.5833545E+03
rotational constants/cm⁻¹ :        0.8750528E-01   0.4281147E-01   0.2889775E-01

 * 20 selected distances

     #   Z          #   Z                                           value/Å
     1   6 C        2   6 C                                       1.4650643 (max)
     2   6 C        3   6 C                                       1.4139767
     3   6 C        4   7 N                                       1.3293888
     4   7 N        5   6 C                                       1.3851996
     5   6 C        6   6 C                                       1.3775982
     6   6 C        7   6 C                                       1.4033443
     7   6 C        8   6 C                                       1.3861177
     8   6 C        9   6 C                                       1.3913622
     2   6 C       10   6 C                                       1.4244879
     5   6 C       10   6 C                                       1.4187392
     9   6 C       10   6 C                                       1.3988611
     1   6 C       11   1 H                                       1.0860506
     1   6 C       12   1 H                                       1.0923167
     1   6 C       13   1 H                                       1.0929265
     3   6 C       14   1 H                                       1.0746424
     4   7 N       15   1 H                                       1.0114854 (min)
     6   6 C       16   1 H                                       1.0789060
     7   6 C       17   1 H                                       1.0787482
     8   6 C       18   1 H                                       1.0785270
     9   6 C       19   1 H                                       1.0788632

 * 4 distinct bonds (by element types)

   Z      Z             #   av. dist./Å        max./Å        min./Å
   1 H    6 C           8     1.0826226     1.0929265     1.0746424
   6 C    6 C           9     1.4088391     1.4650643     1.3775982
   1 H    7 N           1     1.0114854     1.0114854     1.0114854
   6 C    7 N           2     1.3572942     1.3851996     1.3293888


optimized geometry written to: xtbopt.xyz


           -------------------------------------------------
          | TOTAL ENERGY              -26.336272334620 Eh   |
          | GRADIENT NORM               0.000222302718 Eh/α |
          | HOMO-LUMO GAP               3.346777035554 eV   |
           -------------------------------------------------

------------------------------------------------------------------------
 * finished run on 2026/09/30 at 15:17:24.048     
------------------------------------------------------------------------
 total:
 * wall-time:     0 d,  0 h,  0 min,  0.172 sec
 *  cpu-time:     0 d,  0 h,  0 min,  0.122 sec
 * ratio c/w:     0.709 speedup
 SCF:
 * wall-time:     0 d,  0 h,  0 min,  0.033 sec
 *  cpu-time:     0 d,  0 h,  0 min,  0.019 sec
 * ratio c/w:     0.580 speedup
 ANC optimizer:
 * wall-time:     0 d,  0 h,  0 min,  0.075 sec
 *  cpu-time:     0 d,  0 h,  0 min,  0.090 sec
 * ratio c/w:     1.193 speedup

