19
 energy: -26.336272334620 gnorm: 0.000222302718 xtb: 6.7.1 (edcfbbe)
C            2.57388079199359       -1.50944910216193        0.00843528757554
C            1.61763417598126       -0.39950834032842        0.00235735474648
C            1.93358509620278        0.97871610451826        0.00378924622619
N            0.81969777298041        1.70433582213659        0.00147623688823
C           -0.28506716683456        0.86871450822263       -0.00153881547356
C           -1.63074022118804        1.16357002848259       -0.00241908936645
C           -2.52565706634486        0.08260244930004       -0.00519371038111
C           -2.07682675462874       -1.22883577707649       -0.00696433761947
C           -0.71772872472845       -1.52672750526260       -0.00571296116069
C            0.19472604533043       -0.46643298570134       -0.00198144831059
H            3.59959747973540       -1.15340747348833       -0.01696584747664
H            2.39778336876524       -2.17087993564301       -0.84283109023823
H            2.43138396253630       -2.12880769902909        0.89757963036660
H            2.91195413016121        1.42328872954713        0.00610735848810
H            0.77683074891429        2.71491228394231        0.00104110586532
H           -1.99381062126489        2.17954986243172       -0.00074970330452
H           -3.58550958036752        0.28362248129874       -0.00627005057562
H           -2.79451435011201       -2.03390611593801       -0.00953142726391
H           -0.37616619793627       -2.55009309089657       -0.00761203734257
