10
 energy: -10.273200534808 gnorm: 0.000139529580 xtb: 6.7.1 (edcfbbe)
N            0.00000005543005       -0.00000004251058        0.27865760438343
H            0.00000008435772        0.00000008299780        1.29328145085702
C            1.23343630029824       -0.00000002411413       -0.38081046465759
C           -1.23343622329827        0.00000003302251       -0.38081039471330
H            1.32804755274601        0.86495875797430       -1.05668914277529
H            1.32804768786811       -0.86495899454519       -1.05668889295767
H            2.06286734876312        0.00000012518936        0.32321944687190
H           -1.32804757433477        0.86495895623874       -1.05668888827673
H           -1.32804759019218       -0.86495879176738       -1.05668900585489
H           -2.06286723182770        0.00000000814932        0.32321956143485
