      -----------------------------------------------------------      
     |                   =====================                   |     
     |                           x T B                           |     
     |                   =====================                   |     
     |                         S. Grimme                         |     
     |          Mulliken Center for Theoretical Chemistry        |     
     |                    University of Bonn                     |     
      -----------------------------------------------------------      

   * xtb version 6.7.1 (edcfbbe) compiled by 'runner@Mac-1732539442253.local' on 2024-11-25

   xtb is free software: you can redistribute it and/or modify it under
   the terms of the GNU Lesser General Public License as published by
   the Free Software Foundation, either version 3 of the License, or
   (at your option) any later version.
   
   xtb is distributed in the hope that it will be useful,
   but WITHOUT ANY WARRANTY; without even the implied warranty of
   MERCHANTABILITY or FITNESS FOR A PARTICULAR PURPOSE.  See the
   GNU Lesser General Public License for more details.
   
   Cite this work as:
   * C. Bannwarth, E. Caldeweyher, S. Ehlert, A. Hansen, P. Pracht,
     J. Seibert, S. Spicher, S. Grimme, WIREs Comput. Mol. Sci., 2020, 11,
     e01493. DOI: 10.1002/wcms.1493
   
   for GFN2-xTB:
   * C. Bannwarth, S. Ehlert and S. Grimme., J. Chem. Theory Comput., 2019,
     15, 1652-1671. DOI: 10.1021/acs.jctc.8b01176
   for GFN1-xTB:
   * S. Grimme, C. Bannwarth, P. Shushkov, J. Chem. Theory Comput., 2017,
     13, 1989-2009. DOI: 10.1021/acs.jctc.7b00118
   for GFN0-xTB:
   * P. Pracht, E. Caldeweyher, S. Ehlert, S. Grimme, ChemRxiv, 2019, preprint.
     DOI: 10.26434/chemrxiv.8326202.v1
   for GFN-FF:
   * S. Spicher and S. Grimme, Angew. Chem. Int. Ed., 2020, 59, 15665-15673.
     DOI: 10.1002/anie.202004239
   
   for ALPB and GBSA implicit solvation:
   * S. Ehlert, M. Stahn, S. Spicher, S. Grimme, J. Chem. Theory Comput.,
     2021, 17, 4250-4261. DOI: 10.1021/acs.jctc.1c00471
   
   for ddCOSMO and CPCM-X implicit solvation:
   * M. Stahn, S. Ehlert, S. Grimme, J. Phys. Chem. A,
     2023, XX, XXXX-XXXX. DOI: 10.1021/acs.jpca.3c04382
   
   for DFT-D4:
   * E. Caldeweyher, C. Bannwarth and S. Grimme, J. Chem. Phys., 2017,
     147, 034112. DOI: 10.1063/1.4993215
   * E. Caldeweyher, S. Ehlert, A. Hansen, H. Neugebauer, S. Spicher,
     C. Bannwarth and S. Grimme, J. Chem. Phys., 2019, 150, 154122.
     DOI: 10.1063/1.5090222
   * E. Caldeweyher, J.-M. Mewes, S. Ehlert and S. Grimme, Phys. Chem. Chem. Phys.
     2020, 22, 8499-8512. DOI: 10.1039/D0CP00502A
   
   for sTDA-xTB:
   * S. Grimme and C. Bannwarth, J. Chem. Phys., 2016, 145, 054103.
     DOI: 10.1063/1.4959605
   
   in the mass-spec context:
   * V. Asgeirsson, C. Bauer and S. Grimme, Chem. Sci., 2017, 8, 4879.
     DOI: 10.1039/c7sc00601b
   * J. Koopman and S. Grimme, ACS Omega 2019, 4, 12, 15120-15133.
     DOI: 10.1021/acsomega.9b02011
   
   for metadynamics refer to:
   * S. Grimme, J. Chem. Theory Comput., 2019, 155, 2847-2862
     DOI: 10.1021/acs.jctc.9b00143
   
   for SPH calculations refer to:
   * S. Spicher and S. Grimme, J. Chem. Theory Comput., 2021, 17, 1701-1714
     DOI: 10.1021/acs.jctc.0c01306
   
   for ONIOM refer to:
   * C. Plett, A. Katbashev, S. Ehlert, S. Grimme, M. Bursch,
     Phys. Chem. Chem. Phys., 2023, 25, 17860-17868. DOI: 10.1039/D3CP02178E
   
   for DIPRO refer to:
   * J. Kohn, N. Gildemeister, S. Grimme, D. Fazzi, A. Hansen,
     J. Chem. Phys., 2023, just accepted.
   
   for PTB refer to:
   * S. Grimme, M. Mueller, A. Hansen, J. Chem. Phys., 2023, 158, 124111.
     DOI: 10.1063/5.0137838
   
   with help from (in alphabetical order)
   P. Atkinson, C. Bannwarth, F. Bohle, G. Brandenburg, E. Caldeweyher
   M. Checinski, S. Dohm, S. Ehlert, S. Ehrlich, I. Gerasimov, C. Hölzer
   A. Katbashev, J. Kohn, J. Koopman, C. Lavigne, S. Lehtola, F. März, M. Müller,
   F. Musil, H. Neugebauer, J. Pisarek, C. Plett, P. Pracht, F. Pultar,
   J. Seibert, P. Shushkov, S. Spicher, M. Stahn, M. Steiner, T. Strunk,
   J. Stückrath, T. Rose, and J. Unsleber
   
 * started run on 2026/09/29 at 15:12:06.472     
   ID    Z sym.   atoms
    1    6 C      1-4, 6, 7, 10, 13, 15-19
    2    7 N      5, 9, 12, 14
    3    8 O      8, 11
    4    1 H      20-31

           -------------------------------------------------
          |                Calculation Setup                |
           -------------------------------------------------

          program call               : xtb in.xyz --opt tight --input xcontrol --chrg -1 --uhf 1
          coordinate file            : in.xyz
          omp threads                :                     4


           -------------------------------------------------
          |                 G F N 2 - x T B                 |
           -------------------------------------------------

        Reference                      10.1021/acs.jctc.8b01176
      * Hamiltonian:
        H0-scaling (s, p, d)           1.850000    2.230000    2.230000
        zeta-weighting                 0.500000
      * Dispersion:
        s8                             2.700000
        a1                             0.520000
        a2                             5.000000
        s9                             5.000000
      * Repulsion:
        kExp                           1.500000    1.000000
        rExp                           1.000000
      * Coulomb:
        alpha                          2.000000
        third order                    shell-resolved
        anisotropic                    true
        a3                             3.000000
        a5                             4.000000
        cn-shift                       1.200000
        cn-exp                         4.000000
        max-rad                        5.000000

q/qsh data taken from xtbrestart
CAMM data taken from xtbrestart

          ...................................................
          :                      SETUP                      :
          :.................................................:
          :  # basis functions                  88          :
          :  # atomic orbitals                  88          :
          :  # shells                           50          :
          :  # electrons                        97          :
          :  max. iterations                   250          :
          :  Hamiltonian                  GFN2-xTB          :
          :  restarted?                       true          :
          :  GBSA solvation                  false          :
          :  PC potential                    false          :
          :  electronic temp.          300.0000000     K    :
          :  accuracy                    1.0000000          :
          :  -> integral cutoff          0.2500000E+02      :
          :  -> integral neglect         0.1000000E-07      :
          :  -> SCF convergence          0.1000000E-05 Eh   :
          :  -> wf. convergence          0.1000000E-03 e    :
          :  Broyden damping             0.4000000          :
          :  net charge                         -1          :
          :  unpaired electrons                  1          :
          ...................................................

 iter      E             dE          RMSdq      gap      omega  full diag
   1    -54.7860343 -0.547860E+02  0.429E-01    1.26       0.0  T
   2    -54.7873000 -0.126565E-02  0.277E-01    1.29       1.0  T
   3    -54.7874975 -0.197523E-03  0.155E-01    1.27       1.0  T
   4    -54.7876159 -0.118435E-03  0.499E-02    1.29       1.0  T
   5    -54.7876831 -0.671872E-04  0.140E-02    1.29       1.3  T
   6    -54.7876879 -0.480188E-05  0.639E-03    1.28       2.8  T
   7    -54.7876881 -0.139954E-06  0.258E-03    1.28       7.0  T
   8    -54.7876882 -0.118230E-06  0.893E-04    1.28      20.1  T
   9    -54.7876882 -0.115834E-07  0.433E-04    1.28      41.5  T

   *** convergence criteria satisfied after 9 iterations ***

         #    Occupation            Energy/Eh            Energy/eV
      -------------------------------------------------------------
         1        2.0000           -0.5527904             -15.0422
       ...           ...                  ...                  ...
        43        2.0000           -0.2665970              -7.2545
        44        2.0000           -0.2654312              -7.2228
        45        2.0000           -0.2589449              -7.0463
        46        2.0000           -0.2453067              -6.6751
        47        2.0000           -0.2426885              -6.6039
        48        2.0000           -0.2081374              -5.6637
        49        1.0000           -0.1573773              -4.2825 (HOMO)
        50                         -0.1101811              -2.9982 (LUMO)
        51                         -0.0928737              -2.5272
        52                         -0.0691765              -1.8824
        53                         -0.0445391              -1.2120
        54                          0.0184351               0.5016
       ...                                ...                  ...
        88                          0.8391852              22.8354
      -------------------------------------------------------------
                  HL-Gap            0.0471963 Eh            1.2843 eV
             Fermi-level           -0.1582683 Eh           -4.3067 eV

 SCC (total)                   0 d,  0 h,  0 min,  0.070 sec
 SCC setup                      ...        0 min,  0.001 sec (  0.730%)
 Dispersion                     ...        0 min,  0.001 sec (  1.271%)
 classical contributions        ...        0 min,  0.000 sec (  0.672%)
 integral evaluation            ...        0 min,  0.008 sec ( 11.016%)
 iterations                     ...        0 min,  0.048 sec ( 68.891%)
 molecular gradient             ...        0 min,  0.011 sec ( 15.404%)
 printout                       ...        0 min,  0.001 sec (  1.967%)

         :::::::::::::::::::::::::::::::::::::::::::::::::::::
         ::                     SUMMARY                     ::
         :::::::::::::::::::::::::::::::::::::::::::::::::::::
         :: total energy             -54.084169976071 Eh    ::
         :: gradient norm              0.126341284142 Eh/a0 ::
         :: HOMO-LUMO gap              1.284275852983 eV    ::
         ::.................................................::
         :: SCC energy               -54.787763266932 Eh    ::
         :: -> isotropic ES            0.184973796276 Eh    ::
         :: -> anisotropic ES          0.015217616230 Eh    ::
         :: -> anisotropic XC          0.020395046412 Eh    ::
         :: -> dispersion             -0.035227848831 Eh    ::
         :: repulsion energy           0.703593290861 Eh    ::
         :: add. restraining           0.000000000000 Eh    ::
         :: total charge              -1.000000000000 e     ::
         :::::::::::::::::::::::::::::::::::::::::::::::::::::

      ----------------------------------------------------------- 
     |                       L-ANC optimizer                     |
      ----------------------------------------------------------- 
          low memory version by Sebastian Ehlert

          ...................................................
          :                      SETUP                      :
          :.................................................:
          :   energy convergence        0.1000000E-05 Eh    :
          :   grad. convergence         0.8000000E-03 Eh/a0 :
          :   optimization log               true           :
          :   writing optlog all                1     steps :
          :   Hessian reset                    20     steps :
          :   maximium step len.        1.0000000     a0    :
          :   LBFGS images                     20           :
          ...................................................
 * calculating model hessian...
Using Lindh-Hessian (1995)
 Shifting diagonal of input Hessian by    1.0000000000000000E-002
 Lowest  eigenvalues of input Hessian
    0.000000    0.000000    0.000000    0.000000    0.000000    0.000000
    0.010972    0.011484    0.013520    0.015170    0.016275    0.017436
    0.018079    0.018999    0.019703    0.020647    0.021542    0.027822
 Highest eigenvalues
    1.963151    1.991689    2.057903    2.149663    2.382632    2.522781


........................................................................
.............................. CYCLE    1 ..............................
........................................................................

 iter      E             dE          RMSdq      gap      omega  full diag
   1    -54.8161352 -0.548161E+02  0.209E-01    1.45       0.0  T
   2    -54.8164101 -0.274945E-03  0.142E-01    1.44       1.0  T
   3    -54.8164333 -0.232050E-04  0.736E-02    1.44       1.0  T
   4    -54.8164690 -0.356604E-04  0.222E-02    1.44       1.0  T
   5    -54.8164840 -0.150389E-04  0.648E-03    1.44       2.8  T
   6    -54.8164850 -0.996535E-06  0.306E-03    1.44       5.9  T
   7    -54.8164850 -0.271741E-07  0.112E-03    1.44      16.1  T
   8    -54.8164851 -0.223179E-07  0.370E-04    1.44      48.6  T
   9    -54.8164851 -0.122026E-08  0.194E-04    1.44      92.7  T
     SCC iter.                  ...        0 min,  0.045 sec
     gradient                   ...        0 min,  0.012 sec
 * total energy  :   -54.0979104 Eh     change       -0.1374046E-01 Eh
   gradient norm :     0.0742231 Eh/a0  converged?    E=F G=F D=F
   step length   :     0.3313053 a0

........................................................................
.............................. CYCLE    2 ..............................
........................................................................

 iter      E             dE          RMSdq      gap      omega  full diag
   1    -54.8450444 -0.548450E+02  0.252E-01    1.64       0.0  T
   2    -54.8454856 -0.441133E-03  0.162E-01    1.65       1.0  T
   3    -54.8455345 -0.489113E-04  0.870E-02    1.65       1.0  T
   4    -54.8455610 -0.265216E-04  0.296E-02    1.64       1.0  T
   5    -54.8455873 -0.263114E-04  0.750E-03    1.64       2.4  T
   6    -54.8455885 -0.115689E-05  0.359E-03    1.64       5.0  T
   7    -54.8455885 -0.506595E-07  0.111E-03    1.64      16.1  T
   8    -54.8455885 -0.223945E-07  0.410E-04    1.64      43.8  T
   9    -54.8455885 -0.149999E-08  0.220E-04    1.64      81.7  T
     SCC iter.                  ...        0 min,  0.071 sec
     gradient                   ...        0 min,  0.010 sec
 * total energy  :   -54.1039410 Eh     change       -0.6030597E-02 Eh
   gradient norm :     0.0192518 Eh/a0  converged?    E=F G=F D=F
   step length   :     0.5051996 a0

........................................................................
.............................. CYCLE    3 ..............................
........................................................................

 iter      E             dE          RMSdq      gap      omega  full diag
   1    -54.8401751 -0.548402E+02  0.468E-02    1.62       0.0  T
   2    -54.8401908 -0.157017E-04  0.371E-02    1.61       1.0  T
   3    -54.8401961 -0.523387E-05  0.189E-02    1.62       1.0  T
   4    -54.8401968 -0.765919E-06  0.585E-03    1.62       3.1  T
   5    -54.8401980 -0.112878E-05  0.138E-03    1.62      13.0  T
   6    -54.8401980 -0.166493E-07  0.728E-04    1.62      24.7  T
   7    -54.8401980 -0.176396E-08  0.215E-04    1.62      83.7  T
     SCC iter.                  ...        0 min,  0.044 sec
     gradient                   ...        0 min,  0.016 sec
 * total energy  :   -54.1044197 Eh     change       -0.4786208E-03 Eh
   gradient norm :     0.0078889 Eh/a0  converged?    E=F G=F D=F
   step length   :     0.0928173 a0

........................................................................
.............................. CYCLE    4 ..............................
........................................................................

 iter      E             dE          RMSdq      gap      omega  full diag
   1    -54.8385455 -0.548385E+02  0.336E-02    1.62       0.0  T
   2    -54.8385515 -0.606774E-05  0.229E-02    1.61       1.0  T
   3    -54.8385523 -0.761377E-06  0.112E-02    1.62       1.6  T
   4    -54.8385533 -0.104308E-05  0.385E-03    1.61       4.7  T
   5    -54.8385537 -0.388187E-06  0.100E-03    1.61      17.9  T
   6    -54.8385537 -0.813032E-08  0.537E-04    1.61      33.5  T
   7    -54.8385537 -0.264508E-08  0.133E-04    1.61     134.7  T
     SCC iter.                  ...        0 min,  0.031 sec
     gradient                   ...        0 min,  0.011 sec
 * total energy  :   -54.1045636 Eh     change       -0.1439445E-03 Eh
   gradient norm :     0.0031114 Eh/a0  converged?    E=F G=F D=F
   step length   :     0.1127756 a0

........................................................................
.............................. CYCLE    5 ..............................
........................................................................

 iter      E             dE          RMSdq      gap      omega  full diag
   1    -54.8389497 -0.548389E+02  0.105E-02    1.62       0.0  T
   2    -54.8389501 -0.382510E-06  0.625E-03    1.62       2.9  T
   3    -54.8389501  0.193312E-07  0.281E-03    1.62       6.4  T
   4    -54.8389501 -0.685177E-07  0.788E-04    1.62      22.8  T
   5    -54.8389502 -0.163307E-07  0.226E-04    1.62      79.5  T
     SCC iter.                  ...        0 min,  0.018 sec
     gradient                   ...        0 min,  0.013 sec
 * total energy  :   -54.1045800 Eh     change       -0.1644101E-04 Eh
   gradient norm :     0.0014476 Eh/a0  converged?    E=F G=F D=F
   step length   :     0.0365464 a0

........................................................................
.............................. CYCLE    6 ..............................
........................................................................

 iter      E             dE          RMSdq      gap      omega  full diag
   1    -54.8395447 -0.548395E+02  0.856E-03    1.62       0.0  T
   2    -54.8395448 -0.114852E-06  0.505E-03    1.62       3.6  T
   3    -54.8395447  0.523842E-07  0.191E-03    1.62       9.4  T
   4    -54.8395448 -0.732358E-07  0.470E-04    1.62      38.2  T
   5    -54.8395448 -0.741370E-08  0.167E-04    1.62     107.4  T
     SCC iter.                  ...        0 min,  0.017 sec
     gradient                   ...        0 min,  0.011 sec
 * total energy  :   -54.1045839 Eh     change       -0.3808080E-05 Eh
   gradient norm :     0.0007770 Eh/a0  converged?    E=F G=T D=F
   step length   :     0.0241029 a0

........................................................................
.............................. CYCLE    7 ..............................
........................................................................

 iter      E             dE          RMSdq      gap      omega  full diag
   1    -54.8394518 -0.548395E+02  0.259E-03    1.62       0.0  T
   2    -54.8394518 -0.277848E-07  0.151E-03    1.62      11.9  T
   3    -54.8394518  0.125816E-09  0.681E-04    1.62      26.4  T
   4    -54.8394518 -0.285102E-08  0.169E-04    1.62     106.1  T
     SCC iter.                  ...        0 min,  0.017 sec
     gradient                   ...        0 min,  0.009 sec
 * total energy  :   -54.1045846 Eh     change       -0.7768503E-06 Eh
   gradient norm :     0.0002701 Eh/a0  converged?    E=T G=T D=F
   step length   :     0.0064614 a0

   *** GEOMETRY OPTIMIZATION CONVERGED AFTER 7 CYCLES ***

------------------------------------------------------------------------
 total energy gain   :        -0.0204147 Eh      -12.8104 kcal/mol
 total RMSD          :         0.1661306 a0        0.0879 Å
 total power (kW/mol):        -7.6569518 (step) -143.3507 (real)
------------------------------------------------------------------------

 L-ANCopt (total)              0 d,  0 h,  0 min,  0.374 sec
 setup                          ...        0 min,  0.000 sec (  0.099%)
 model hessian                  ...        0 min,  0.002 sec (  0.609%)
 ANC generation                 ...        0 min,  0.000 sec (  0.130%)
 coordinate transformation      ...        0 min,  0.000 sec (  0.033%)
 Rational function              ...        0 min,  0.000 sec (  0.007%)
 singlepoint calculation        ...        0 min,  0.369 sec ( 98.544%)
 optimization log               ...        0 min,  0.001 sec (  0.307%)
 hessian update                 ...        0 min,  0.000 sec (  0.010%)

================
 final structure:
================
31
 xtb: 6.7.1 (edcfbbe)
C            0.95500951230877       -0.08725437183772        0.08494361182370
C            2.45690998815765       -0.03937300545445        0.08019764878460
C            3.18661334287898       -1.21224616394783        0.07384874697633
C            4.59326342636021       -1.22088004910953        0.06916409896733
N            5.23823272815054       -2.39412389315473        0.06446285797657
C            6.58297689490933       -2.36104293884929        0.06073528914653
C            7.32444061542743       -3.60848530416609        0.05708805618525
O            6.86244298056326       -4.74420037438859        0.05704334140894
N            8.69542356780456       -3.42319820758646        0.05353611011480
C            9.39146996992578       -2.20652236733381        0.05258039966039
O           10.61573216298542       -2.22824633286717        0.04892632157865
N            8.65815205129964       -1.08410484488808        0.05586432594815
C            7.33681548627110       -1.16541940230122        0.06005012640679
N            6.64789191477543        0.03350752299808        0.06387890399295
C            7.39463433813957        1.26485514038935        0.06155512767366
C            5.26395063731949        0.03713118261445        0.06987715453518
C            4.52221504793247        1.20536884094694        0.07652945293781
C            3.12592015270651        1.18705824046897        0.08212213586442
C            2.36427905250553        2.48110001980917        0.09058416456466
H            0.60903500193818       -1.11808690737887        0.08365235407945
H            0.54772717960921        0.41548181646296       -0.79344892349938
H            0.55324484172245        0.41151221202061        0.96809561489487
H            2.69191630192673       -2.17134340868601        0.07256690225244
H            9.26341523467073       -4.26196452217371        0.05105134681174
H            8.44669077921862        0.98372523926586        0.05590452191252
H            7.17089935950229        1.85437503443543        0.95498387030568
H            7.16155704225211        1.85633475372526       -0.82819617911410
H            5.01938734614510        2.16467562335795        0.07769967652566
H            3.04671886480676        3.32876460273893        0.08959029103810
H            1.72854400851855        2.55379887113314        0.97485118913232
H            1.71841269283084        2.55972504456367       -0.78574687225729

 Bond Distances (Angstroems)
 ---------------------------
C1-C2=1.5027         C1-H20=1.0873        C1-H21=1.0910        C1-H22=1.0909        C2-C1=1.5027         C2-C3=1.3814         
C2-C18=1.3970        C3-C2=1.3814         C3-C4=1.4067         C3-H23=1.0792        C4-C3=1.4067         C4-N5=1.3388         
C4-C16=1.4256        N5-C4=1.3388         N5-C6=1.3452         C6-N5=1.3452         C6-C7=1.4512         C6-C13=1.4134        
C7-C6=1.4512         C7-O8=1.2261         C7-N9=1.3835         O8-C7=1.2261         N9-C7=1.3835         N9-C10=1.4017        
N9-H24=1.0130        C10-N9=1.4017        C10-O11=1.2245       C10-N12=1.3407       O11-C10=1.2245       N12-C10=1.3407       
N12-C13=1.3238       C13-C6=1.4134        C13-N12=1.3238       C13-N14=1.3828       N14-C13=1.3828       N14-C15=1.4401       
N14-C16=1.3840       C15-N14=1.4401       C15-H25=1.0890       C15-H26=1.0935       C15-H27=1.0935       C16-C4=1.4256        
C16-N14=1.3840       C16-C17=1.3838       C17-C16=1.3838       C17-C18=1.3964       C17-H28=1.0805       C18-C2=1.3970        
C18-C17=1.3964       C18-C19=1.5016       C19-C18=1.5016       C19-H29=1.0882       C19-H30=1.0915       C19-H31=1.0915       
H20-C1=1.0873        H21-C1=1.0910        H22-C1=1.0909        H23-C3=1.0792        H24-N9=1.0130        H25-C15=1.0890       
H26-C15=1.0935       H27-C15=1.0935       H28-C17=1.0805       H29-C19=1.0882       H30-C19=1.0915       H31-C19=1.0915       
 C  H  Rav=1.0887 sigma=0.0046  Rmin=1.0792  Rmax=1.0935    11
 C  C  Rav=1.4260 sigma=0.0427  Rmin=1.3814  Rmax=1.5027    10
 N  H  Rav=1.0130 sigma=0.0000  Rmin=1.0130  Rmax=1.0130     1
 N  C  Rav=1.3712 sigma=0.0350  Rmin=1.3238  Rmax=1.4401     9
 O  C  Rav=1.2253 sigma=0.0008  Rmin=1.2245  Rmax=1.2261     2

 selected bond angles (degree)
 --------------------
H20-C1-C2=110.38               H21-C1-C2=110.85               H21-C1-H20=108.49              H22-C1-C2=110.86               
H22-C1-H20=108.49              H22-C1-H21=107.68              C3-C2-C1=120.06                C18-C2-C1=120.44               
C18-C2-C3=119.50               C4-C3-C2=122.24                H23-C3-C2=120.83               H23-C3-C4=116.93               
N5-C4-C3=119.15                C16-C4-C3=117.71               C16-C4-N5=123.14               C6-N5-C4=117.39                
C7-C6-N5=119.32                C13-C6-N5=123.64               C13-C6-C7=117.04               O8-C7-C6=127.14                
N9-C7-C6=113.03                N9-C7-O8=119.83                C10-N9-C7=127.47               H24-N9-C7=116.41               
H24-N9-C10=116.12              O11-C10-N9=118.76              N12-C10-N9=117.07              N12-C10-O11=124.17             

 selected dihedral angles (degree)
 ---------------------------------
C3-C2-C1-H20=  0.06           C3-C2-C1-H21=239.83           C3-C2-C1-H22=120.30           C18-C2-C1-H20=180.06          
C18-C2-C1-H21= 59.83          C18-C2-C1-H22=300.30          C4-C3-C2-C1=180.00            C4-C3-C2-C18=  0.00           
H23-C3-C2-C1=  0.00           H23-C3-C2-C18=179.98          N5-C4-C3-C2=179.93            N5-C4-C3-H23=359.95           
C16-C4-C3-C2=359.94           C16-C4-C3-H23=179.96          C6-N5-C4-C3=180.03            C6-N5-C4-C16=  0.00           
C7-C6-N5-C4=179.93            C13-C6-N5-C4=359.93           O8-C7-C6-N5=  0.00            O8-C7-C6-C13=180.00           
N9-C7-C6-N5=180.00            N9-C7-C6-C13=  0.00           C10-N9-C7-C6=359.97           C10-N9-C7-O8=179.98           
H24-N9-C7-C6=179.99           H24-N9-C7-O8=  0.00           O11-C10-N9-C7=180.02          O11-C10-N9-H24=  0.00         
N12-C10-N9-C7=  0.00          N12-C10-N9-H24=180.00         
           -------------------------------------------------
          |                Final Singlepoint                |
           -------------------------------------------------

          ...................................................
          :                      SETUP                      :
          :.................................................:
          :  # basis functions                  88          :
          :  # atomic orbitals                  88          :
          :  # shells                           50          :
          :  # electrons                        97          :
          :  max. iterations                   250          :
          :  Hamiltonian                  GFN2-xTB          :
          :  restarted?                      false          :
          :  GBSA solvation                  false          :
          :  PC potential                    false          :
          :  electronic temp.          300.0000000     K    :
          :  accuracy                    1.0000000          :
          :  -> integral cutoff          0.2500000E+02      :
          :  -> integral neglect         0.1000000E-07      :
          :  -> SCF convergence          0.1000000E-05 Eh   :
          :  -> wf. convergence          0.1000000E-03 e    :
          :  Broyden damping             0.4000000          :
          :  net charge                         -1          :
          :  unpaired electrons                  1          :
          ...................................................

 iter      E             dE          RMSdq      gap      omega  full diag
   1    -54.8394518 -0.548395E+02  0.608E-05    1.62       0.0  T
   2    -54.8394518 -0.280096E-10  0.415E-05    1.62     433.3  T
   3    -54.8394518 -0.473364E-10  0.181E-05    1.62     989.6  T

   *** convergence criteria satisfied after 3 iterations ***

         #    Occupation            Energy/Eh            Energy/eV
      -------------------------------------------------------------
         1        2.0000           -0.5527278             -15.0405
       ...           ...                  ...                  ...
        43        2.0000           -0.2690428              -7.3210
        44        2.0000           -0.2677021              -7.2845
        45        2.0000           -0.2610512              -7.1036
        46        2.0000           -0.2440573              -6.6411
        47        2.0000           -0.2434767              -6.6253
        48        2.0000           -0.2185878              -5.9481
        49        1.0000           -0.1694020              -4.6097 (HOMO)
        50                         -0.1099084              -2.9908 (LUMO)
        51                         -0.0877388              -2.3875
        52                         -0.0713891              -1.9426
        53                         -0.0433230              -1.1789
        54                          0.0218600               0.5948
       ...                                ...                  ...
        88                          0.8276868              22.5225
      -------------------------------------------------------------
                  HL-Gap            0.0594936 Eh            1.6189 eV
             Fermi-level           -0.1668251 Eh           -4.5395 eV

 SCC (total)                   0 d,  0 h,  0 min,  0.022 sec
 SCC setup                      ...        0 min,  0.000 sec (  0.788%)
 Dispersion                     ...        0 min,  0.000 sec (  0.945%)
 classical contributions        ...        0 min,  0.000 sec (  0.323%)
 integral evaluation            ...        0 min,  0.003 sec ( 12.213%)
 iterations                     ...        0 min,  0.010 sec ( 44.828%)
 molecular gradient             ...        0 min,  0.008 sec ( 35.367%)
 printout                       ...        0 min,  0.001 sec (  5.414%)

         :::::::::::::::::::::::::::::::::::::::::::::::::::::
         ::                     SUMMARY                     ::
         :::::::::::::::::::::::::::::::::::::::::::::::::::::
         :: total energy             -54.104584629412 Eh    ::
         :: gradient norm              0.000270645976 Eh/a0 ::
         :: HOMO-LUMO gap              1.618903878539 eV    ::
         ::.................................................::
         :: SCC energy               -54.839528319796 Eh    ::
         :: -> isotropic ES            0.186036651333 Eh    ::
         :: -> anisotropic ES          0.012411726090 Eh    ::
         :: -> anisotropic XC          0.019770194244 Eh    ::
         :: -> dispersion             -0.035735632864 Eh    ::
         :: repulsion energy           0.734943690384 Eh    ::
         :: add. restraining           0.000000000000 Eh    ::
         :: total charge              -1.000000000000 e     ::
         :::::::::::::::::::::::::::::::::::::::::::::::::::::

           -------------------------------------------------
          |                Property Printout                |
           -------------------------------------------------

    * Orbital Energies and Occupations

         #    Occupation            Energy/Eh            Energy/eV
      -------------------------------------------------------------
         1        2.0000           -0.5527278             -15.0405
       ...           ...                  ...                  ...
        37        2.0000           -0.3402560              -9.2588
        38        2.0000           -0.3231353              -8.7930
        39        2.0000           -0.3189174              -8.6782
        40        2.0000           -0.3177472              -8.6463
        41        2.0000           -0.2964752              -8.0675
        42        2.0000           -0.2772886              -7.5454
        43        2.0000           -0.2690428              -7.3210
        44        2.0000           -0.2677021              -7.2845
        45        2.0000           -0.2610512              -7.1036
        46        2.0000           -0.2440573              -6.6411
        47        2.0000           -0.2434767              -6.6253
        48        2.0000           -0.2185878              -5.9481
        49        1.0000           -0.1694020              -4.6097 (HOMO)
        50                         -0.1099084              -2.9908 (LUMO)
        51                         -0.0877388              -2.3875
        52                         -0.0713891              -1.9426
        53                         -0.0433230              -1.1789
        54                          0.0218600               0.5948
        55                          0.0658586               1.7921
        56                          0.1205114               3.2793
        57                          0.1676520               4.5620
        58                          0.2021746               5.5014
        59                          0.2047224               5.5708
        60                          0.2266282               6.1669
       ...                                ...                  ...
        88                          0.8276868              22.5225
      -------------------------------------------------------------
                  HL-Gap            0.0594936 Eh            1.6189 eV
             Fermi-level           -0.1668251 Eh           -4.5395 eV

     #   Z          covCN         q      C6AA      α(0)
     1   6 C        3.757    -0.098    22.414     6.750
     2   6 C        2.964    -0.011    28.289     8.724
     3   6 C        2.929    -0.074    29.839     8.958
     4   6 C        2.955     0.073    26.371     8.423
     5   7 N        1.842    -0.290    28.372     7.894
     6   6 C        2.949     0.011    27.763     8.642
     7   6 C        2.762     0.261    22.603     7.786
     8   8 O        0.858    -0.479    23.334     6.476
     9   7 N        2.700    -0.231    26.060     7.582
    10   6 C        2.732     0.338    21.259     7.549
    11   8 O        0.860    -0.515    24.108     6.583
    12   7 N        1.843    -0.377    30.695     8.211
    13   6 C        2.894     0.132    25.109     8.216
    14   7 N        2.754    -0.054    22.289     7.012
    15   6 C        3.699    -0.048    21.603     6.647
    16   6 C        2.922     0.032    27.289     8.567
    17   6 C        2.919    -0.081    30.023     8.985
    18   6 C        2.968    -0.021    28.523     8.760
    19   6 C        3.757    -0.094    22.357     6.742
    20   1 H        0.925     0.029     2.599     2.521
    21   1 H        0.924     0.025     2.653     2.547
    22   1 H        0.924     0.025     2.652     2.547
    23   1 H        0.926     0.030     2.588     2.516
    24   1 H        0.860     0.174     1.248     1.750
    25   1 H        0.925     0.092     1.858     2.132
    26   1 H        0.924     0.035     2.514     2.479
    27   1 H        0.924     0.035     2.514     2.479
    28   1 H        0.926     0.008     2.916     2.671
    29   1 H        0.925     0.023     2.694     2.567
    30   1 H        0.924     0.024     2.668     2.554
    31   1 H        0.924     0.024     2.668     2.554

 Mol. C6AA /au·bohr⁶  :      13148.842342
 Mol. C8AA /au·bohr⁸  :     311914.294985
 Mol. α(0) /au        :        177.824052


Wiberg/Mayer (AO) data.
largest (>0.10) Wiberg bond orders for each atom

 ---------------------------------------------------------------------------
     #   Z sym  total        # sym  WBO       # sym  WBO       # sym  WBO
 ---------------------------------------------------------------------------
     1   6 C    3.997 --     2 C    1.019    20 H    0.987    22 H    0.976
                            21 H    0.976
     2   6 C    3.975 --     3 C    1.449    18 C    1.359     1 C    1.019
     3   6 C    3.963 --     2 C    1.449     4 C    1.283    23 H    0.968
     4   6 C    3.976 --     5 N    1.311     3 C    1.283    16 C    1.202
     5   7 N    2.960 --     6 C    1.333     4 C    1.311
     6   6 C    3.964 --     5 N    1.333    13 C    1.236     7 C    1.090
     7   6 C    3.941 --     8 O    1.609     9 N    1.129     6 C    1.090
     8   8 O    1.940 --     7 C    1.609     9 N    0.145
     9   7 N    3.465 --     7 C    1.129    10 C    1.057    24 H    0.936
                             8 O    0.145    11 O    0.116
    10   6 C    3.944 --    11 O    1.573    12 N    1.230     9 N    1.057
    11   8 O    1.887 --    10 C    1.573     9 N    0.116    12 N    0.109
    12   7 N    2.997 --    13 C    1.375    10 C    1.230    11 O    0.109
    13   6 C    3.958 --    12 N    1.375     6 C    1.236    14 N    1.135
    14   7 N    3.555 --    13 C    1.135    16 C    1.124    15 C    1.002
    15   6 C    3.970 --    14 N    1.002    27 H    0.976    26 H    0.976
                            25 H    0.964
    16   6 C    3.956 --    17 C    1.404     4 C    1.202    14 N    1.124
    17   6 C    3.967 --    16 C    1.404    18 C    1.372    28 H    0.964
    18   6 C    3.953 --    17 C    1.372     2 C    1.359    19 C    1.022
    19   6 C    3.997 --    18 C    1.022    29 H    0.987    31 H    0.975
                            30 H    0.975
    20   1 H    0.999 --     1 C    0.987
    21   1 H    0.998 --     1 C    0.976
    22   1 H    0.998 --     1 C    0.976
    23   1 H    0.998 --     3 C    0.968
    24   1 H    0.969 --     9 N    0.936
    25   1 H    0.991 --    15 C    0.964
    26   1 H    0.997 --    15 C    0.976
    27   1 H    0.997 --    15 C    0.976
    28   1 H    1.000 --    17 C    0.964
    29   1 H    0.999 --    19 C    0.987
    30   1 H    0.996 --    19 C    0.975
    31   1 H    0.996 --    19 C    0.975
 ---------------------------------------------------------------------------

Topologies differ in total number of bonds
Writing topology from bond orders to xtbtopo.mol

molecular dipole:
                 x           y           z       tot (Debye)
 q only:      -14.031       5.028      -0.111
   full:      -14.099       5.243      -0.110      38.235
molecular quadrupole (traceless):
                xx          xy          yy          xz          yz          zz
 q only:     -207.798     108.082      78.390      -2.194       0.794     129.407
  q+dip:     -211.387     106.059      80.076      -2.186       0.860     131.311
   full:     -212.793     105.997      77.775      -2.170       0.847     135.018

           -------------------------------------------------
          |                Geometry Summary                 |
           -------------------------------------------------

      molecular mass/u    :      256.2604784
   center of mass at/Å    :        5.9010471      -1.0453302       0.0663190
  moments of inertia/u·Å² :        0.5599560E+03   0.2198424E+04   0.2748921E+04
rotational constants/cm⁻¹ :        0.3010528E-01   0.7668053E-02   0.6132455E-02

 * 30 selected distances

     #   Z          #   Z                                           value/Å
     2   6 C        3   6 C                                       1.3813541
     3   6 C        4   6 C                                       1.4066845
     4   6 C        5   7 N                                       1.3388461
     5   7 N        6   6 C                                       1.3451563
     7   6 C        8   8 O                                       1.2260876
     7   6 C        9   7 N                                       1.3834517
     9   7 N       10   6 C                                       1.4017068
    10   6 C       11   8 O                                       1.2244605
    10   6 C       12   7 N                                       1.3407414
     6   6 C       13   6 C                                       1.4134317
    12   7 N       13   6 C                                       1.3238430
    13   6 C       14   7 N                                       1.3827713
    14   7 N       15   6 C                                       1.4400858 (max)
     4   6 C       16   6 C                                       1.4256277
    14   7 N       16   6 C                                       1.3839591
    16   6 C       17   6 C                                       1.3838336
     2   6 C       18   6 C                                       1.3970370
    17   6 C       18   6 C                                       1.3964263
     1   6 C       20   1 H                                       1.0873435
     1   6 C       21   1 H                                       1.0909612
     1   6 C       22   1 H                                       1.0909357
     3   6 C       23   1 H                                       1.0791638
     9   7 N       24   1 H                                       1.0129905 (min)
    15   6 C       25   1 H                                       1.0889853
    15   6 C       26   1 H                                       1.0935292
    15   6 C       27   1 H                                       1.0935405
    17   6 C       28   1 H                                       1.0804866
    19   6 C       29   1 H                                       1.0882374
    19   6 C       30   1 H                                       1.0915001
    19   6 C       31   1 H                                       1.0914585

 * 5 distinct bonds (by element types)

   Z      Z             #   av. dist./Å        max./Å        min./Å
   1 H    6 C          11     1.0887402     1.0935405     1.0791638
   6 C    6 C           7     1.4006278     1.4256277     1.3813541
   1 H    7 N           1     1.0129905     1.0129905     1.0129905
   6 C    7 N           9     1.3711735     1.4400858     1.3238430
   6 C    8 O           2     1.2252740     1.2260876     1.2244605


optimized geometry written to: xtbopt.xyz


           -------------------------------------------------
          | TOTAL ENERGY              -54.104584629412 Eh   |
          | GRADIENT NORM               0.000270645976 Eh/α |
          | HOMO-LUMO GAP               1.618903878539 eV   |
           -------------------------------------------------

------------------------------------------------------------------------
 * finished run on 2026/09/29 at 15:12:06.966     
------------------------------------------------------------------------
 total:
 * wall-time:     0 d,  0 h,  0 min,  0.487 sec
 *  cpu-time:     0 d,  0 h,  0 min,  0.379 sec
 * ratio c/w:     0.779 speedup
 SCF:
 * wall-time:     0 d,  0 h,  0 min,  0.070 sec
 *  cpu-time:     0 d,  0 h,  0 min,  0.049 sec
 * ratio c/w:     0.694 speedup
 ANC optimizer:
 * wall-time:     0 d,  0 h,  0 min,  0.398 sec
 *  cpu-time:     0 d,  0 h,  0 min,  0.319 sec
 * ratio c/w:     0.801 speedup

