31
 energy: -54.104584629412 gnorm: 0.000270645976 xtb: 6.7.1 (edcfbbe)
C            0.95500951230877       -0.08725437183772        0.08494361182370
C            2.45690998815765       -0.03937300545445        0.08019764878460
C            3.18661334287898       -1.21224616394783        0.07384874697633
C            4.59326342636021       -1.22088004910953        0.06916409896733
N            5.23823272815054       -2.39412389315473        0.06446285797657
C            6.58297689490933       -2.36104293884929        0.06073528914653
C            7.32444061542743       -3.60848530416609        0.05708805618525
O            6.86244298056326       -4.74420037438859        0.05704334140894
N            8.69542356780456       -3.42319820758646        0.05353611011480
C            9.39146996992578       -2.20652236733381        0.05258039966039
O           10.61573216298542       -2.22824633286717        0.04892632157865
N            8.65815205129964       -1.08410484488808        0.05586432594815
C            7.33681548627110       -1.16541940230122        0.06005012640679
N            6.64789191477543        0.03350752299808        0.06387890399295
C            7.39463433813957        1.26485514038935        0.06155512767366
C            5.26395063731949        0.03713118261445        0.06987715453518
C            4.52221504793247        1.20536884094694        0.07652945293781
C            3.12592015270651        1.18705824046897        0.08212213586442
C            2.36427905250553        2.48110001980917        0.09058416456466
H            0.60903500193818       -1.11808690737887        0.08365235407945
H            0.54772717960921        0.41548181646296       -0.79344892349938
H            0.55324484172245        0.41151221202061        0.96809561489487
H            2.69191630192673       -2.17134340868601        0.07256690225244
H            9.26341523467073       -4.26196452217371        0.05105134681174
H            8.44669077921862        0.98372523926586        0.05590452191252
H            7.17089935950229        1.85437503443543        0.95498387030568
H            7.16155704225211        1.85633475372526       -0.82819617911410
H            5.01938734614510        2.16467562335795        0.07769967652566
H            3.04671886480676        3.32876460273893        0.08959029103810
H            1.72854400851855        2.55379887113314        0.97485118913232
H            1.71841269283084        2.55972504456367       -0.78574687225729
