      -----------------------------------------------------------      
     |                   =====================                   |     
     |                           x T B                           |     
     |                   =====================                   |     
     |                         S. Grimme                         |     
     |          Mulliken Center for Theoretical Chemistry        |     
     |                    University of Bonn                     |     
      -----------------------------------------------------------      

   * xtb version 6.7.1 (edcfbbe) compiled by 'runner@Mac-1732539442253.local' on 2024-11-25

   xtb is free software: you can redistribute it and/or modify it under
   the terms of the GNU Lesser General Public License as published by
   the Free Software Foundation, either version 3 of the License, or
   (at your option) any later version.
   
   xtb is distributed in the hope that it will be useful,
   but WITHOUT ANY WARRANTY; without even the implied warranty of
   MERCHANTABILITY or FITNESS FOR A PARTICULAR PURPOSE.  See the
   GNU Lesser General Public License for more details.
   
   Cite this work as:
   * C. Bannwarth, E. Caldeweyher, S. Ehlert, A. Hansen, P. Pracht,
     J. Seibert, S. Spicher, S. Grimme, WIREs Comput. Mol. Sci., 2020, 11,
     e01493. DOI: 10.1002/wcms.1493
   
   for GFN2-xTB:
   * C. Bannwarth, S. Ehlert and S. Grimme., J. Chem. Theory Comput., 2019,
     15, 1652-1671. DOI: 10.1021/acs.jctc.8b01176
   for GFN1-xTB:
   * S. Grimme, C. Bannwarth, P. Shushkov, J. Chem. Theory Comput., 2017,
     13, 1989-2009. DOI: 10.1021/acs.jctc.7b00118
   for GFN0-xTB:
   * P. Pracht, E. Caldeweyher, S. Ehlert, S. Grimme, ChemRxiv, 2019, preprint.
     DOI: 10.26434/chemrxiv.8326202.v1
   for GFN-FF:
   * S. Spicher and S. Grimme, Angew. Chem. Int. Ed., 2020, 59, 15665-15673.
     DOI: 10.1002/anie.202004239
   
   for ALPB and GBSA implicit solvation:
   * S. Ehlert, M. Stahn, S. Spicher, S. Grimme, J. Chem. Theory Comput.,
     2021, 17, 4250-4261. DOI: 10.1021/acs.jctc.1c00471
   
   for ddCOSMO and CPCM-X implicit solvation:
   * M. Stahn, S. Ehlert, S. Grimme, J. Phys. Chem. A,
     2023, XX, XXXX-XXXX. DOI: 10.1021/acs.jpca.3c04382
   
   for DFT-D4:
   * E. Caldeweyher, C. Bannwarth and S. Grimme, J. Chem. Phys., 2017,
     147, 034112. DOI: 10.1063/1.4993215
   * E. Caldeweyher, S. Ehlert, A. Hansen, H. Neugebauer, S. Spicher,
     C. Bannwarth and S. Grimme, J. Chem. Phys., 2019, 150, 154122.
     DOI: 10.1063/1.5090222
   * E. Caldeweyher, J.-M. Mewes, S. Ehlert and S. Grimme, Phys. Chem. Chem. Phys.
     2020, 22, 8499-8512. DOI: 10.1039/D0CP00502A
   
   for sTDA-xTB:
   * S. Grimme and C. Bannwarth, J. Chem. Phys., 2016, 145, 054103.
     DOI: 10.1063/1.4959605
   
   in the mass-spec context:
   * V. Asgeirsson, C. Bauer and S. Grimme, Chem. Sci., 2017, 8, 4879.
     DOI: 10.1039/c7sc00601b
   * J. Koopman and S. Grimme, ACS Omega 2019, 4, 12, 15120-15133.
     DOI: 10.1021/acsomega.9b02011
   
   for metadynamics refer to:
   * S. Grimme, J. Chem. Theory Comput., 2019, 155, 2847-2862
     DOI: 10.1021/acs.jctc.9b00143
   
   for SPH calculations refer to:
   * S. Spicher and S. Grimme, J. Chem. Theory Comput., 2021, 17, 1701-1714
     DOI: 10.1021/acs.jctc.0c01306
   
   for ONIOM refer to:
   * C. Plett, A. Katbashev, S. Ehlert, S. Grimme, M. Bursch,
     Phys. Chem. Chem. Phys., 2023, 25, 17860-17868. DOI: 10.1039/D3CP02178E
   
   for DIPRO refer to:
   * J. Kohn, N. Gildemeister, S. Grimme, D. Fazzi, A. Hansen,
     J. Chem. Phys., 2023, just accepted.
   
   for PTB refer to:
   * S. Grimme, M. Mueller, A. Hansen, J. Chem. Phys., 2023, 158, 124111.
     DOI: 10.1063/5.0137838
   
   with help from (in alphabetical order)
   P. Atkinson, C. Bannwarth, F. Bohle, G. Brandenburg, E. Caldeweyher
   M. Checinski, S. Dohm, S. Ehlert, S. Ehrlich, I. Gerasimov, C. Hölzer
   A. Katbashev, J. Kohn, J. Koopman, C. Lavigne, S. Lehtola, F. März, M. Müller,
   F. Musil, H. Neugebauer, J. Pisarek, C. Plett, P. Pracht, F. Pultar,
   J. Seibert, P. Shushkov, S. Spicher, M. Stahn, M. Steiner, T. Strunk,
   J. Stückrath, T. Rose, and J. Unsleber
   
 * started run on 2026/09/29 at 15:12:08.364     
   ID    Z sym.   atoms
    1    6 C      1, 2, 4
    2    7 N      3
    3    8 O      5, 6
    4    1 H      7-13

           -------------------------------------------------
          |                Calculation Setup                |
           -------------------------------------------------

          program call               : xtb in.xyz --opt tight --input xcontrol --chrg 0 --uhf 0
          coordinate file            : in.xyz
          omp threads                :                     4


           -------------------------------------------------
          |                 G F N 2 - x T B                 |
           -------------------------------------------------

        Reference                      10.1021/acs.jctc.8b01176
      * Hamiltonian:
        H0-scaling (s, p, d)           1.850000    2.230000    2.230000
        zeta-weighting                 0.500000
      * Dispersion:
        s8                             2.700000
        a1                             0.520000
        a2                             5.000000
        s9                             5.000000
      * Repulsion:
        kExp                           1.500000    1.000000
        rExp                           1.000000
      * Coulomb:
        alpha                          2.000000
        third order                    shell-resolved
        anisotropic                    true
        a3                             3.000000
        a5                             4.000000
        cn-shift                       1.200000
        cn-exp                         4.000000
        max-rad                        5.000000

q/qsh data taken from xtbrestart
CAMM data taken from xtbrestart

          ...................................................
          :                      SETUP                      :
          :.................................................:
          :  # basis functions                  31          :
          :  # atomic orbitals                  31          :
          :  # shells                           19          :
          :  # electrons                        36          :
          :  max. iterations                   250          :
          :  Hamiltonian                  GFN2-xTB          :
          :  restarted?                       true          :
          :  GBSA solvation                  false          :
          :  PC potential                    false          :
          :  electronic temp.          300.0000000     K    :
          :  accuracy                    1.0000000          :
          :  -> integral cutoff          0.2500000E+02      :
          :  -> integral neglect         0.1000000E-07      :
          :  -> SCF convergence          0.1000000E-05 Eh   :
          :  -> wf. convergence          0.1000000E-03 e    :
          :  Broyden damping             0.4000000          :
          :  net charge                          0          :
          :  unpaired electrons                  0          :
          ...................................................

 iter      E             dE          RMSdq      gap      omega  full diag
   1    -21.2270850 -0.212271E+02  0.385E-01    4.53       0.0  T
   2    -21.2272737 -0.188669E-03  0.226E-01    4.59       1.0  T
   3    -21.2272770 -0.331473E-05  0.111E-01    4.56       1.0  T
   4    -21.2273171 -0.400987E-04  0.145E-02    4.58       1.9  T
   5    -21.2273174 -0.360913E-06  0.746E-03    4.58       3.7  T
   6    -21.2273175 -0.472029E-07  0.190E-03    4.58      14.6  T
   7    -21.2273175 -0.348948E-08  0.631E-04    4.58      44.0  T
   8    -21.2273175 -0.353115E-09  0.252E-04    4.58     110.2  T

   *** convergence criteria satisfied after 8 iterations ***

         #    Occupation            Energy/Eh            Energy/eV
      -------------------------------------------------------------
         1        2.0000           -0.7331085             -19.9489
       ...           ...                  ...                  ...
        12        2.0000           -0.5087278             -13.8432
        13        2.0000           -0.5026401             -13.6775
        14        2.0000           -0.4832641             -13.1503
        15        2.0000           -0.4749747             -12.9247
        16        2.0000           -0.4667500             -12.7009
        17        2.0000           -0.4231677             -11.5150
        18        2.0000           -0.4119225             -11.2090 (HOMO)
        19                         -0.2436472              -6.6300 (LUMO)
        20                         -0.0143066              -0.3893
        21                          0.0394584               1.0737
        22                          0.0567454               1.5441
        23                          0.0943631               2.5678
       ...                                ...                  ...
        31                          0.5798120              15.7775
      -------------------------------------------------------------
                  HL-Gap            0.1682753 Eh            4.5790 eV
             Fermi-level           -0.3277848 Eh           -8.9195 eV

 SCC (total)                   0 d,  0 h,  0 min,  0.020 sec
 SCC setup                      ...        0 min,  0.000 sec (  0.758%)
 Dispersion                     ...        0 min,  0.000 sec (  0.330%)
 classical contributions        ...        0 min,  0.000 sec (  0.127%)
 integral evaluation            ...        0 min,  0.000 sec (  1.611%)
 iterations                     ...        0 min,  0.005 sec ( 24.617%)
 molecular gradient             ...        0 min,  0.014 sec ( 71.823%)
 printout                       ...        0 min,  0.000 sec (  0.648%)

         :::::::::::::::::::::::::::::::::::::::::::::::::::::
         ::                     SUMMARY                     ::
         :::::::::::::::::::::::::::::::::::::::::::::::::::::
         :: total energy             -21.036594539347 Eh    ::
         :: gradient norm              0.060490661869 Eh/a0 ::
         :: HOMO-LUMO gap              4.579004373852 eV    ::
         ::.................................................::
         :: SCC energy               -21.227308812267 Eh    ::
         :: -> isotropic ES            0.058074727175 Eh    ::
         :: -> anisotropic ES          0.001662553524 Eh    ::
         :: -> anisotropic XC          0.006905522118 Eh    ::
         :: -> dispersion             -0.007004065910 Eh    ::
         :: repulsion energy           0.190714272920 Eh    ::
         :: add. restraining           0.000000000000 Eh    ::
         :: total charge              -0.000000000000 e     ::
         :::::::::::::::::::::::::::::::::::::::::::::::::::::

      ----------------------------------------------------------- 
     |                       L-ANC optimizer                     |
      ----------------------------------------------------------- 
          low memory version by Sebastian Ehlert

          ...................................................
          :                      SETUP                      :
          :.................................................:
          :   energy convergence        0.1000000E-05 Eh    :
          :   grad. convergence         0.8000000E-03 Eh/a0 :
          :   optimization log               true           :
          :   writing optlog all                1     steps :
          :   Hessian reset                    20     steps :
          :   maximium step len.        1.0000000     a0    :
          :   LBFGS images                     20           :
          ...................................................
 * calculating model hessian...
Using Lindh-Hessian (1995)
 Shifting diagonal of input Hessian by    1.0000000000000000E-002
 Lowest  eigenvalues of input Hessian
    0.000000    0.000000    0.000000    0.000000    0.000000    0.000000
    0.017022    0.019479    0.022648    0.027552    0.029429    0.036037
    0.056144    0.059122    0.062648    0.070698    0.078663    0.081715
 Highest eigenvalues
    1.207708    1.264388    1.272698    1.340041    1.605932    2.232338


........................................................................
.............................. CYCLE    1 ..............................
........................................................................

 iter      E             dE          RMSdq      gap      omega  full diag
   1    -21.2432415 -0.212432E+02  0.198E-01    4.82       0.0  T
   2    -21.2432942 -0.527622E-04  0.120E-01    4.77       1.0  T
   3    -21.2432959 -0.170702E-05  0.565E-02    4.79       1.0  T
   4    -21.2433063 -0.103785E-04  0.745E-03    4.77       3.7  T
   5    -21.2433064 -0.530243E-07  0.361E-03    4.77       7.7  T
   6    -21.2433064 -0.160146E-07  0.129E-03    4.77      21.5  T
   7    -21.2433064 -0.284263E-08  0.437E-04    4.77      63.5  T
   8    -21.2433064 -0.263579E-09  0.125E-04    4.77     222.1  T
     SCC iter.                  ...        0 min,  0.004 sec
     gradient                   ...        0 min,  0.001 sec
 * total energy  :   -21.0398485 Eh     change       -0.3253964E-02 Eh
   gradient norm :     0.0212612 Eh/a0  converged?    E=F G=F D=F
   step length   :     0.1889833 a0

........................................................................
.............................. CYCLE    2 ..............................
........................................................................

 iter      E             dE          RMSdq      gap      omega  full diag
   1    -21.2485813 -0.212486E+02  0.969E-02    4.80       0.0  T
   2    -21.2486081 -0.268395E-04  0.558E-02    4.78       1.0  T
   3    -21.2486104 -0.232912E-05  0.298E-02    4.79       1.0  T
   4    -21.2486114 -0.102198E-05  0.580E-03    4.78       4.8  T
   5    -21.2486115 -0.913199E-07  0.201E-03    4.79      13.8  T
   6    -21.2486115 -0.353090E-08  0.674E-04    4.79      41.2  T
   7    -21.2486115 -0.591058E-09  0.217E-04    4.79     128.1  T
     SCC iter.                  ...        0 min,  0.007 sec
     gradient                   ...        0 min,  0.001 sec
 * total energy  :   -21.0405653 Eh     change       -0.7167609E-03 Eh
   gradient norm :     0.0110196 Eh/a0  converged?    E=F G=F D=F
   step length   :     0.1503512 a0

........................................................................
.............................. CYCLE    3 ..............................
........................................................................

 iter      E             dE          RMSdq      gap      omega  full diag
   1    -21.2491179 -0.212491E+02  0.652E-02    4.74       0.0  T
   2    -21.2491298 -0.119240E-04  0.371E-02    4.74       1.0  T
   3    -21.2491303 -0.409935E-06  0.190E-02    4.74       1.5  T
   4    -21.2491305 -0.200831E-06  0.405E-03    4.74       6.8  T
   5    -21.2491306 -0.982650E-07  0.131E-03    4.74      21.2  T
   6    -21.2491306 -0.108326E-08  0.497E-04    4.74      55.8  T
   7    -21.2491306 -0.611795E-09  0.151E-04    4.74     184.0  T
     SCC iter.                  ...        0 min,  0.004 sec
     gradient                   ...        0 min,  0.005 sec
 * total energy  :   -21.0407801 Eh     change       -0.2148248E-03 Eh
   gradient norm :     0.0051708 Eh/a0  converged?    E=F G=F D=F
   step length   :     0.1231186 a0

........................................................................
.............................. CYCLE    4 ..............................
........................................................................

 iter      E             dE          RMSdq      gap      omega  full diag
   1    -21.2487325 -0.212487E+02  0.418E-02    4.70       0.0  T
   2    -21.2487339 -0.135709E-05  0.249E-02    4.70       1.1  T
   3    -21.2487339  0.538481E-08  0.690E-03    4.70       4.0  T
   4    -21.2487340 -0.122057E-06  0.124E-03    4.70      22.4  T
   5    -21.2487340 -0.499417E-08  0.606E-04    4.70      45.8  T
   6    -21.2487340 -0.216943E-09  0.176E-04    4.70     157.2  T
     SCC iter.                  ...        0 min,  0.002 sec
     gradient                   ...        0 min,  0.001 sec
 * total energy  :   -21.0408342 Eh     change       -0.5414537E-04 Eh
   gradient norm :     0.0042697 Eh/a0  converged?    E=F G=F D=F
   step length   :     0.0792217 a0

........................................................................
.............................. CYCLE    5 ..............................
........................................................................

 iter      E             dE          RMSdq      gap      omega  full diag
   1    -21.2488006 -0.212488E+02  0.213E-02    4.69       0.0  T
   2    -21.2488008 -0.213222E-06  0.127E-02    4.69       2.2  T
   3    -21.2488008  0.176969E-07  0.302E-03    4.69       9.2  T
   4    -21.2488008 -0.521075E-07  0.701E-04    4.69      39.6  T
   5    -21.2488008 -0.126550E-08  0.343E-04    4.69      80.9  T
     SCC iter.                  ...        0 min,  0.002 sec
     gradient                   ...        0 min,  0.002 sec
 * total energy  :   -21.0408711 Eh     change       -0.3684543E-04 Eh
   gradient norm :     0.0027718 Eh/a0  converged?    E=F G=F D=F
   step length   :     0.0460284 a0

........................................................................
.............................. CYCLE    6 ..............................
........................................................................

 iter      E             dE          RMSdq      gap      omega  full diag
   1    -21.2488559 -0.212489E+02  0.367E-02    4.69       0.0  T
   2    -21.2488568 -0.863688E-06  0.216E-02    4.69       1.3  T
   3    -21.2488568  0.140204E-07  0.532E-03    4.69       5.2  T
   4    -21.2488569 -0.103398E-06  0.133E-03    4.69      20.9  T
   5    -21.2488569 -0.726742E-08  0.570E-04    4.69      48.7  T
   6    -21.2488569 -0.306681E-09  0.146E-04    4.69     189.4  T
     SCC iter.                  ...        0 min,  0.003 sec
     gradient                   ...        0 min,  0.001 sec
 * total energy  :   -21.0409069 Eh     change       -0.3583963E-04 Eh
   gradient norm :     0.0017427 Eh/a0  converged?    E=F G=F D=F
   step length   :     0.0830149 a0

........................................................................
.............................. CYCLE    7 ..............................
........................................................................

 iter      E             dE          RMSdq      gap      omega  full diag
   1    -21.2488656 -0.212489E+02  0.509E-02    4.69       0.0  T
   2    -21.2488660 -0.441721E-06  0.300E-02    4.69       1.0  T
   3    -21.2488661 -0.644873E-07  0.306E-03    4.69       9.1  T
   4    -21.2488661 -0.351805E-07  0.138E-03    4.69      20.1  T
   5    -21.2488661 -0.433582E-08  0.524E-04    4.69      52.9  T
   6    -21.2488661 -0.416630E-09  0.182E-04    4.69     152.4  T
     SCC iter.                  ...        0 min,  0.005 sec
     gradient                   ...        0 min,  0.001 sec
 * total energy  :   -21.0409288 Eh     change       -0.2186168E-04 Eh
   gradient norm :     0.0023620 Eh/a0  converged?    E=F G=F D=F
   step length   :     0.1098654 a0

........................................................................
.............................. CYCLE    8 ..............................
........................................................................

 iter      E             dE          RMSdq      gap      omega  full diag
   1    -21.2491180 -0.212491E+02  0.150E-02    4.69       0.0  T
   2    -21.2491181 -0.147129E-06  0.875E-03    4.69       3.2  T
   3    -21.2491181  0.415189E-08  0.226E-03    4.70      12.3  T
   4    -21.2491181 -0.158919E-07  0.510E-04    4.69      54.4  T
   5    -21.2491181 -0.132123E-08  0.232E-04    4.69     119.4  T
     SCC iter.                  ...        0 min,  0.002 sec
     gradient                   ...        0 min,  0.002 sec
 * total energy  :   -21.0409378 Eh     change       -0.9009342E-05 Eh
   gradient norm :     0.0013793 Eh/a0  converged?    E=F G=F D=F
   step length   :     0.0251627 a0

........................................................................
.............................. CYCLE    9 ..............................
........................................................................

 iter      E             dE          RMSdq      gap      omega  full diag
   1    -21.2490299 -0.212490E+02  0.511E-02    4.69       0.0  T
   2    -21.2490313 -0.136089E-05  0.299E-02    4.69       1.0  T
   3    -21.2490313 -0.689669E-08  0.584E-03    4.70       4.7  T
   4    -21.2490314 -0.915443E-07  0.153E-03    4.70      18.2  T
   5    -21.2490314 -0.108135E-07  0.752E-04    4.70      36.9  T
   6    -21.2490314 -0.511484E-09  0.236E-04    4.70     117.4  T
     SCC iter.                  ...        0 min,  0.005 sec
     gradient                   ...        0 min,  0.001 sec
 * total energy  :   -21.0409464 Eh     change       -0.8573190E-05 Eh
   gradient norm :     0.0018962 Eh/a0  converged?    E=F G=F D=F
   step length   :     0.0897670 a0

........................................................................
.............................. CYCLE   10 ..............................
........................................................................

 iter      E             dE          RMSdq      gap      omega  full diag
   1    -21.2492349 -0.212492E+02  0.994E-03    4.70       0.0  T
   2    -21.2492351 -0.186669E-06  0.568E-03    4.70       4.9  T
   3    -21.2492351 -0.370552E-08  0.243E-03    4.70      11.4  T
   4    -21.2492351 -0.651285E-08  0.482E-04    4.70      57.6  T
   5    -21.2492351 -0.121175E-08  0.166E-04    4.70     167.0  T
     SCC iter.                  ...        0 min,  0.002 sec
     gradient                   ...        0 min,  0.013 sec
 * total energy  :   -21.0409499 Eh     change       -0.3564584E-05 Eh
   gradient norm :     0.0007727 Eh/a0  converged?    E=F G=T D=F
   step length   :     0.0154986 a0

........................................................................
.............................. CYCLE   11 ..............................
........................................................................

 iter      E             dE          RMSdq      gap      omega  full diag
   1    -21.2489735 -0.212490E+02  0.109E-02    4.70       0.0  T
   2    -21.2489736 -0.617401E-07  0.634E-03    4.70       4.4  T
   3    -21.2489736  0.353501E-08  0.160E-03    4.70      17.3  T
   4    -21.2489736 -0.119842E-07  0.388E-04    4.70      71.5  T
   5    -21.2489736 -0.466496E-09  0.196E-04    4.70     141.5  T
     SCC iter.                  ...        0 min,  0.005 sec
     gradient                   ...        0 min,  0.001 sec
 * total energy  :   -21.0409517 Eh     change       -0.1769474E-05 Eh
   gradient norm :     0.0004145 Eh/a0  converged?    E=F G=T D=F
   step length   :     0.0155370 a0

........................................................................
.............................. CYCLE   12 ..............................
........................................................................

 iter      E             dE          RMSdq      gap      omega  full diag
   1    -21.2489951 -0.212490E+02  0.105E-02    4.70       0.0  T
   2    -21.2489951 -0.972686E-08  0.617E-03    4.70       4.5  T
   3    -21.2489951 -0.305062E-08  0.384E-04    4.70      72.2  T
   4    -21.2489951 -0.230298E-09  0.227E-04    4.70     122.4  T
     SCC iter.                  ...        0 min,  0.002 sec
     gradient                   ...        0 min,  0.001 sec
 * total energy  :   -21.0409525 Eh     change       -0.7726414E-06 Eh
   gradient norm :     0.0003392 Eh/a0  converged?    E=T G=T D=F
   step length   :     0.0164726 a0

   *** GEOMETRY OPTIMIZATION CONVERGED AFTER 12 CYCLES ***

------------------------------------------------------------------------
 total energy gain   :        -0.0043579 Eh       -2.7346 kcal/mol
 total RMSD          :         0.1951432 a0        0.1033 Å
 total power (kW/mol):        -0.9534788 (step) -104.8557 (real)
------------------------------------------------------------------------

 L-ANCopt (total)              0 d,  0 h,  0 min,  0.109 sec
 setup                          ...        0 min,  0.000 sec (  0.292%)
 model hessian                  ...        0 min,  0.001 sec (  0.979%)
 ANC generation                 ...        0 min,  0.000 sec (  0.106%)
 coordinate transformation      ...        0 min,  0.000 sec (  0.047%)
 Rational function              ...        0 min,  0.000 sec (  0.017%)
 singlepoint calculation        ...        0 min,  0.103 sec ( 94.135%)
 optimization log               ...        0 min,  0.004 sec (  3.940%)
 hessian update                 ...        0 min,  0.000 sec (  0.044%)

================
 final structure:
================
13
 xtb: 6.7.1 (edcfbbe)
C            0.88593485971577       -0.01491118712796       -0.09471219084991
C            2.41062518336228        0.01827170440152       -0.00963598253289
N            3.10017125264156       -1.01010051298278       -0.78629625986207
C            2.94828973205669        1.39259104704548       -0.45998692060868
O            2.39174317021652        2.42627093260281       -0.22596513341561
O            4.10475332933592        1.31358892609761       -1.11061523140719
H            0.49230367608185       -0.92352116795654        0.35638069255140
H            0.56708054183807        0.03087497385732       -1.13493877515268
H            0.47855529999087        0.84727136090123        0.42495499683925
H            2.71922599187701       -0.08990195850606        1.03792387548284
H            2.65516462083093       -1.11289176253911       -1.69444901970096
H            3.05803621563077       -1.90986541706584       -0.32327055695346
H            4.33447695235281        0.36137034937618       -1.19443277215615

 Bond Distances (Angstroems)
 ---------------------------
C1-C2=1.5274         C1-H7=1.0881         C1-H8=1.0890         C1-H9=1.0860         C2-C1=1.5274         C2-N3=1.4616         
C2-C4=1.5429         C2-H10=1.0974        N3-C2=1.4616         N3-H11=1.0165        N3-H12=1.0128        C4-C2=1.5429         
C4-O5=1.1971         C4-O6=1.3293         O5-C4=1.1971         O6-C4=1.3293         O6-H13=0.9831        H7-C1=1.0881         
H8-C1=1.0890         H9-C1=1.0860         H10-C2=1.0974        H11-N3=1.0165        H12-N3=1.0128        H13-O6=0.9831        
 C  H  Rav=1.0901 sigma=0.0043  Rmin=1.0860  Rmax=1.0974     4
 C  C  Rav=1.5352 sigma=0.0078  Rmin=1.5274  Rmax=1.5429     2
 N  H  Rav=1.0147 sigma=0.0019  Rmin=1.0128  Rmax=1.0165     2
 N  C  Rav=1.4616 sigma=0.0000  Rmin=1.4616  Rmax=1.4616     1
 O  H  Rav=0.9831 sigma=0.0000  Rmin=0.9831  Rmax=0.9831     1
 O  C  Rav=1.2632 sigma=0.0661  Rmin=1.1971  Rmax=1.3293     2

 selected bond angles (degree)
 --------------------
H7-C1-C2=110.86                H8-C1-C2=110.16                H8-C1-H7=108.98                H9-C1-C2=109.30                
H9-C1-H7=109.20                H9-C1-H8=108.29                N3-C2-C1=115.22                C4-C2-C1=110.54                
C4-C2-N3=107.89                H10-C2-C1=109.37               H10-C2-N3=107.77               H10-C2-C4=105.57               
H11-N3-C2=109.84               H12-N3-C2=111.25               H12-N3-H11=107.48              O5-C4-C2=123.37                
O6-C4-C2=113.15                O6-C4-O5=123.47                H13-O6-C4=107.61               

 selected dihedral angles (degree)
 ---------------------------------
N3-C2-C1-H7= 65.67            N3-C2-C1-H8=304.96            N3-C2-C1-H9=186.09            C4-C2-C1-H7=188.29            
C4-C2-C1-H8= 67.59            C4-C2-C1-H9=308.72            H10-C2-C1-H7=304.12           H10-C2-C1-H8=183.41           
H10-C2-C1-H9= 64.54           H11-N3-C2-C1= 41.89           H11-N3-C2-C4=277.86           H11-N3-C2-H10=164.30          
H12-N3-C2-C1=283.01           H12-N3-C2-C4=158.98           H12-N3-C2-H10= 45.42          O5-C4-C2-C1= 36.64            
O5-C4-C2-N3=163.45            O5-C4-C2-H10=278.46           O6-C4-C2-C1=215.39            O6-C4-C2-N3=342.19            
O6-C4-C2-H10= 97.21           H13-O6-C4-C2=  2.79           H13-O6-C4-O5=181.54           
           -------------------------------------------------
          |                Final Singlepoint                |
           -------------------------------------------------

          ...................................................
          :                      SETUP                      :
          :.................................................:
          :  # basis functions                  31          :
          :  # atomic orbitals                  31          :
          :  # shells                           19          :
          :  # electrons                        36          :
          :  max. iterations                   250          :
          :  Hamiltonian                  GFN2-xTB          :
          :  restarted?                      false          :
          :  GBSA solvation                  false          :
          :  PC potential                    false          :
          :  electronic temp.          300.0000000     K    :
          :  accuracy                    1.0000000          :
          :  -> integral cutoff          0.2500000E+02      :
          :  -> integral neglect         0.1000000E-07      :
          :  -> SCF convergence          0.1000000E-05 Eh   :
          :  -> wf. convergence          0.1000000E-03 e    :
          :  Broyden damping             0.4000000          :
          :  net charge                          0          :
          :  unpaired electrons                  0          :
          ...................................................

 iter      E             dE          RMSdq      gap      omega  full diag
   1    -21.2489951 -0.212490E+02  0.959E-05    4.70       0.0  T
   2    -21.2489951 -0.184315E-10  0.575E-05    4.70     482.2  T
   3    -21.2489951 -0.265743E-11  0.341E-05    4.70     814.0  T

   *** convergence criteria satisfied after 3 iterations ***

         #    Occupation            Energy/Eh            Energy/eV
      -------------------------------------------------------------
         1        2.0000           -0.7381318             -20.0856
       ...           ...                  ...                  ...
        12        2.0000           -0.5076112             -13.8128
        13        2.0000           -0.4976454             -13.5416
        14        2.0000           -0.4768759             -12.9765
        15        2.0000           -0.4722448             -12.8504
        16        2.0000           -0.4649477             -12.6519
        17        2.0000           -0.4236341             -11.5277
        18        2.0000           -0.4014751             -10.9247 (HOMO)
        19                         -0.2288231              -6.2266 (LUMO)
        20                          0.0038714               0.1053
        21                          0.0579705               1.5775
        22                          0.0739347               2.0119
        23                          0.1079426               2.9373
       ...                                ...                  ...
        31                          0.6541696              17.8009
      -------------------------------------------------------------
                  HL-Gap            0.1726519 Eh            4.6981 eV
             Fermi-level           -0.3151491 Eh           -8.5756 eV

 SCC (total)                   0 d,  0 h,  0 min,  0.006 sec
 SCC setup                      ...        0 min,  0.002 sec ( 31.870%)
 Dispersion                     ...        0 min,  0.000 sec (  1.428%)
 classical contributions        ...        0 min,  0.001 sec ( 15.691%)
 integral evaluation            ...        0 min,  0.001 sec ( 10.644%)
 iterations                     ...        0 min,  0.001 sec ( 18.287%)
 molecular gradient             ...        0 min,  0.001 sec ( 19.260%)
 printout                       ...        0 min,  0.000 sec (  2.497%)

         :::::::::::::::::::::::::::::::::::::::::::::::::::::
         ::                     SUMMARY                     ::
         :::::::::::::::::::::::::::::::::::::::::::::::::::::
         :: total energy             -21.040952470027 Eh    ::
         :: gradient norm              0.000339634511 Eh/a0 ::
         :: HOMO-LUMO gap              4.698098668908 eV    ::
         ::.................................................::
         :: SCC energy               -21.248986279159 Eh    ::
         :: -> isotropic ES            0.057731227047 Eh    ::
         :: -> anisotropic ES          0.001448697592 Eh    ::
         :: -> anisotropic XC          0.005974574908 Eh    ::
         :: -> dispersion             -0.007022869239 Eh    ::
         :: repulsion energy           0.208033809132 Eh    ::
         :: add. restraining           0.000000000000 Eh    ::
         :: total charge              -0.000000000000 e     ::
         :::::::::::::::::::::::::::::::::::::::::::::::::::::

           -------------------------------------------------
          |                Property Printout                |
           -------------------------------------------------

    * Orbital Energies and Occupations

         #    Occupation            Energy/Eh            Energy/eV
      -------------------------------------------------------------
         1        2.0000           -0.7381318             -20.0856
       ...           ...                  ...                  ...
         6        2.0000           -0.6145374             -16.7224
         7        2.0000           -0.5891352             -16.0312
         8        2.0000           -0.5682154             -15.4619
         9        2.0000           -0.5556764             -15.1207
        10        2.0000           -0.5428195             -14.7709
        11        2.0000           -0.5220701             -14.2062
        12        2.0000           -0.5076112             -13.8128
        13        2.0000           -0.4976454             -13.5416
        14        2.0000           -0.4768759             -12.9765
        15        2.0000           -0.4722448             -12.8504
        16        2.0000           -0.4649477             -12.6519
        17        2.0000           -0.4236341             -11.5277
        18        2.0000           -0.4014751             -10.9247 (HOMO)
        19                         -0.2288231              -6.2266 (LUMO)
        20                          0.0038714               0.1053
        21                          0.0579705               1.5775
        22                          0.0739347               2.0119
        23                          0.1079426               2.9373
        24                          0.1292689               3.5176
        25                          0.1523753               4.1463
        26                          0.1743898               4.7454
        27                          0.2058030               5.6002
        28                          0.2289311               6.2295
        29                          0.2542231               6.9178
       ...                                ...                  ...
        31                          0.6541696              17.8009
      -------------------------------------------------------------
                  HL-Gap            0.1726519 Eh            4.6981 eV
             Fermi-level           -0.3151491 Eh           -8.5756 eV

     #   Z          covCN         q      C6AA      α(0)
     1   6 C        3.753    -0.115    22.766     6.804
     2   6 C        3.779     0.014    20.361     6.428
     3   7 N        2.631    -0.353    29.098     8.011
     4   6 C        2.690     0.347    21.112     7.520
     5   8 O        0.856    -0.376    21.198     6.173
     6   8 O        1.657    -0.368    20.232     6.072
     7   1 H        0.925     0.042     2.423     2.434
     8   1 H        0.925     0.043     2.409     2.427
     9   1 H        0.925     0.066     2.130     2.282
    10   1 H        0.924     0.056     2.248     2.345
    11   1 H        0.860     0.152     1.389     1.847
    12   1 H        0.860     0.151     1.391     1.848
    13   1 H        0.803     0.341     0.611     1.228

 Mol. C6AA /au·bohr⁶  :       1404.605496
 Mol. C8AA /au·bohr⁸  :      29734.044258
 Mol. α(0) /au        :         55.418496


Wiberg/Mayer (AO) data.
largest (>0.10) Wiberg bond orders for each atom

 ---------------------------------------------------------------------------
     #   Z sym  total        # sym  WBO       # sym  WBO       # sym  WBO
 ---------------------------------------------------------------------------
     1   6 C    3.993 --     2 C    0.998     7 H    0.986     8 H    0.985
                             9 H    0.980
     2   6 C    3.981 --     3 N    1.013     1 C    0.998    10 H    0.947
                             4 C    0.929
     3   7 N    3.055 --     2 C    1.013    12 H    0.962    11 H    0.962
     4   6 C    3.922 --     5 O    1.785     6 O    1.165     2 C    0.929
     5   8 O    2.067 --     4 C    1.785     6 O    0.172
     6   8 O    2.223 --     4 C    1.165    13 H    0.822     5 O    0.172
     7   1 H    0.998 --     1 C    0.986
     8   1 H    0.998 --     1 C    0.985
     9   1 H    0.996 --     1 C    0.980
    10   1 H    0.997 --     2 C    0.947
    11   1 H    0.977 --     3 N    0.962
    12   1 H    0.977 --     3 N    0.962
    13   1 H    0.884 --     6 O    0.822
 ---------------------------------------------------------------------------

Topologies differ in total number of bonds
Writing topology from bond orders to xtbtopo.mol

molecular dipole:
                 x           y           z       tot (Debye)
 q only:        0.044      -1.652      -0.073
   full:       -0.191      -2.178      -0.056       5.560
molecular quadrupole (traceless):
                xx          xy          yy          xz          yz          zz
 q only:        4.335     -13.043      -7.835      -0.892       2.547       3.501
  q+dip:        0.770     -16.152      -7.447       1.010       2.896       6.677
   full:        0.877     -16.394      -7.789       1.184       3.193       6.912

           -------------------------------------------------
          |                Geometry Summary                 |
           -------------------------------------------------

      molecular mass/u    :       89.0933060
   center of mass at/Å    :        2.6577413       0.6693533      -0.4683169
  moments of inertia/u·Å² :        0.1031759E+03   0.1441229E+03   0.2313256E+03
rotational constants/cm⁻¹ :        0.1633874E+00   0.1169670E+00   0.7287405E-01

 * 11 selected distances

     #   Z          #   Z                                           value/Å
     1   6 C        2   6 C                                       1.5274227 (max)
     2   6 C        3   7 N                                       1.4615830
     4   6 C        5   8 O                                       1.1970817
     4   6 C        6   8 O                                       1.3292731
     1   6 C        7   1 H                                       1.0881188
     1   6 C        8   1 H                                       1.0889610
     1   6 C        9   1 H                                       1.0859885
     2   6 C       10   1 H                                       1.0974142
     3   7 N       11   1 H                                       1.0165326
     3   7 N       12   1 H                                       1.0127908
     6   8 O       13   1 H                                       0.9831168 (min)

 * 6 distinct bonds (by element types)

   Z      Z             #   av. dist./Å        max./Å        min./Å
   1 H    6 C           4     1.0901206     1.0974142     1.0859885
   6 C    6 C           1     1.5274227     1.5274227     1.5274227
   1 H    7 N           2     1.0146617     1.0165326     1.0127908
   6 C    7 N           1     1.4615830     1.4615830     1.4615830
   1 H    8 O           1     0.9831168     0.9831168     0.9831168
   6 C    8 O           2     1.2631774     1.3292731     1.1970817


optimized geometry written to: xtbopt.xyz


           -------------------------------------------------
          | TOTAL ENERGY              -21.040952470027 Eh   |
          | GRADIENT NORM               0.000339634511 Eh/α |
          | HOMO-LUMO GAP               4.698098668908 eV   |
           -------------------------------------------------

------------------------------------------------------------------------
 * finished run on 2026/09/29 at 15:12:08.524     
------------------------------------------------------------------------
 total:
 * wall-time:     0 d,  0 h,  0 min,  0.156 sec
 *  cpu-time:     0 d,  0 h,  0 min,  0.091 sec
 * ratio c/w:     0.586 speedup
 SCF:
 * wall-time:     0 d,  0 h,  0 min,  0.020 sec
 *  cpu-time:     0 d,  0 h,  0 min,  0.007 sec
 * ratio c/w:     0.355 speedup
 ANC optimizer:
 * wall-time:     0 d,  0 h,  0 min,  0.119 sec
 *  cpu-time:     0 d,  0 h,  0 min,  0.077 sec
 * ratio c/w:     0.641 speedup

