13
 energy: -21.040952470027 gnorm: 0.000339634511 xtb: 6.7.1 (edcfbbe)
C            0.88593485971577       -0.01491118712796       -0.09471219084991
C            2.41062518336228        0.01827170440152       -0.00963598253289
N            3.10017125264156       -1.01010051298278       -0.78629625986207
C            2.94828973205669        1.39259104704548       -0.45998692060868
O            2.39174317021652        2.42627093260281       -0.22596513341561
O            4.10475332933592        1.31358892609761       -1.11061523140719
H            0.49230367608185       -0.92352116795654        0.35638069255140
H            0.56708054183807        0.03087497385732       -1.13493877515268
H            0.47855529999087        0.84727136090123        0.42495499683925
H            2.71922599187701       -0.08990195850606        1.03792387548284
H            2.65516462083093       -1.11289176253911       -1.69444901970096
H            3.05803621563077       -1.90986541706584       -0.32327055695346
H            4.33447695235281        0.36137034937618       -1.19443277215615
