      -----------------------------------------------------------      
     |                   =====================                   |     
     |                           x T B                           |     
     |                   =====================                   |     
     |                         S. Grimme                         |     
     |          Mulliken Center for Theoretical Chemistry        |     
     |                    University of Bonn                     |     
      -----------------------------------------------------------      

   * xtb version 6.7.1 (edcfbbe) compiled by 'runner@Mac-1732539442253.local' on 2024-11-25

   xtb is free software: you can redistribute it and/or modify it under
   the terms of the GNU Lesser General Public License as published by
   the Free Software Foundation, either version 3 of the License, or
   (at your option) any later version.
   
   xtb is distributed in the hope that it will be useful,
   but WITHOUT ANY WARRANTY; without even the implied warranty of
   MERCHANTABILITY or FITNESS FOR A PARTICULAR PURPOSE.  See the
   GNU Lesser General Public License for more details.
   
   Cite this work as:
   * C. Bannwarth, E. Caldeweyher, S. Ehlert, A. Hansen, P. Pracht,
     J. Seibert, S. Spicher, S. Grimme, WIREs Comput. Mol. Sci., 2020, 11,
     e01493. DOI: 10.1002/wcms.1493
   
   for GFN2-xTB:
   * C. Bannwarth, S. Ehlert and S. Grimme., J. Chem. Theory Comput., 2019,
     15, 1652-1671. DOI: 10.1021/acs.jctc.8b01176
   for GFN1-xTB:
   * S. Grimme, C. Bannwarth, P. Shushkov, J. Chem. Theory Comput., 2017,
     13, 1989-2009. DOI: 10.1021/acs.jctc.7b00118
   for GFN0-xTB:
   * P. Pracht, E. Caldeweyher, S. Ehlert, S. Grimme, ChemRxiv, 2019, preprint.
     DOI: 10.26434/chemrxiv.8326202.v1
   for GFN-FF:
   * S. Spicher and S. Grimme, Angew. Chem. Int. Ed., 2020, 59, 15665-15673.
     DOI: 10.1002/anie.202004239
   
   for ALPB and GBSA implicit solvation:
   * S. Ehlert, M. Stahn, S. Spicher, S. Grimme, J. Chem. Theory Comput.,
     2021, 17, 4250-4261. DOI: 10.1021/acs.jctc.1c00471
   
   for ddCOSMO and CPCM-X implicit solvation:
   * M. Stahn, S. Ehlert, S. Grimme, J. Phys. Chem. A,
     2023, XX, XXXX-XXXX. DOI: 10.1021/acs.jpca.3c04382
   
   for DFT-D4:
   * E. Caldeweyher, C. Bannwarth and S. Grimme, J. Chem. Phys., 2017,
     147, 034112. DOI: 10.1063/1.4993215
   * E. Caldeweyher, S. Ehlert, A. Hansen, H. Neugebauer, S. Spicher,
     C. Bannwarth and S. Grimme, J. Chem. Phys., 2019, 150, 154122.
     DOI: 10.1063/1.5090222
   * E. Caldeweyher, J.-M. Mewes, S. Ehlert and S. Grimme, Phys. Chem. Chem. Phys.
     2020, 22, 8499-8512. DOI: 10.1039/D0CP00502A
   
   for sTDA-xTB:
   * S. Grimme and C. Bannwarth, J. Chem. Phys., 2016, 145, 054103.
     DOI: 10.1063/1.4959605
   
   in the mass-spec context:
   * V. Asgeirsson, C. Bauer and S. Grimme, Chem. Sci., 2017, 8, 4879.
     DOI: 10.1039/c7sc00601b
   * J. Koopman and S. Grimme, ACS Omega 2019, 4, 12, 15120-15133.
     DOI: 10.1021/acsomega.9b02011
   
   for metadynamics refer to:
   * S. Grimme, J. Chem. Theory Comput., 2019, 155, 2847-2862
     DOI: 10.1021/acs.jctc.9b00143
   
   for SPH calculations refer to:
   * S. Spicher and S. Grimme, J. Chem. Theory Comput., 2021, 17, 1701-1714
     DOI: 10.1021/acs.jctc.0c01306
   
   for ONIOM refer to:
   * C. Plett, A. Katbashev, S. Ehlert, S. Grimme, M. Bursch,
     Phys. Chem. Chem. Phys., 2023, 25, 17860-17868. DOI: 10.1039/D3CP02178E
   
   for DIPRO refer to:
   * J. Kohn, N. Gildemeister, S. Grimme, D. Fazzi, A. Hansen,
     J. Chem. Phys., 2023, just accepted.
   
   for PTB refer to:
   * S. Grimme, M. Mueller, A. Hansen, J. Chem. Phys., 2023, 158, 124111.
     DOI: 10.1063/5.0137838
   
   with help from (in alphabetical order)
   P. Atkinson, C. Bannwarth, F. Bohle, G. Brandenburg, E. Caldeweyher
   M. Checinski, S. Dohm, S. Ehlert, S. Ehrlich, I. Gerasimov, C. Hölzer
   A. Katbashev, J. Kohn, J. Koopman, C. Lavigne, S. Lehtola, F. März, M. Müller,
   F. Musil, H. Neugebauer, J. Pisarek, C. Plett, P. Pracht, F. Pultar,
   J. Seibert, P. Shushkov, S. Spicher, M. Stahn, M. Steiner, T. Strunk,
   J. Stückrath, T. Rose, and J. Unsleber
   
 * started run on 2026/09/29 at 15:12:07.121     
   ID    Z sym.   atoms
    1    6 C      1
    2    7 N      2
    3    1 H      3-7

           -------------------------------------------------
          |                Calculation Setup                |
           -------------------------------------------------

          program call               : xtb in.xyz --opt tight --input xcontrol --chrg 1 --uhf 1
          coordinate file            : in.xyz
          omp threads                :                     4


           -------------------------------------------------
          |                 G F N 2 - x T B                 |
           -------------------------------------------------

        Reference                      10.1021/acs.jctc.8b01176
      * Hamiltonian:
        H0-scaling (s, p, d)           1.850000    2.230000    2.230000
        zeta-weighting                 0.500000
      * Dispersion:
        s8                             2.700000
        a1                             0.520000
        a2                             5.000000
        s9                             5.000000
      * Repulsion:
        kExp                           1.500000    1.000000
        rExp                           1.000000
      * Coulomb:
        alpha                          2.000000
        third order                    shell-resolved
        anisotropic                    true
        a3                             3.000000
        a5                             4.000000
        cn-shift                       1.200000
        cn-exp                         4.000000
        max-rad                        5.000000

q/qsh data taken from xtbrestart
CAMM data taken from xtbrestart

          ...................................................
          :                      SETUP                      :
          :.................................................:
          :  # basis functions                  13          :
          :  # atomic orbitals                  13          :
          :  # shells                            9          :
          :  # electrons                        13          :
          :  max. iterations                   250          :
          :  Hamiltonian                  GFN2-xTB          :
          :  restarted?                       true          :
          :  GBSA solvation                  false          :
          :  PC potential                    false          :
          :  electronic temp.          300.0000000     K    :
          :  accuracy                    1.0000000          :
          :  -> integral cutoff          0.2500000E+02      :
          :  -> integral neglect         0.1000000E-07      :
          :  -> SCF convergence          0.1000000E-05 Eh   :
          :  -> wf. convergence          0.1000000E-03 e    :
          :  Broyden damping             0.4000000          :
          :  net charge                          1          :
          :  unpaired electrons                  1          :
          ...................................................

 iter      E             dE          RMSdq      gap      omega  full diag
   1     -6.9452245 -0.694522E+01  0.395E+00    5.18       0.0  T
   2     -6.9552985 -0.100740E-01  0.219E+00    5.00       1.0  T
   3     -6.9505800  0.471853E-02  0.134E+00    4.82       1.0  T
   4     -6.9585915 -0.801148E-02  0.315E-01    4.87       1.0  T
   5     -6.9586421 -0.505784E-04  0.985E-02    4.88       1.0  T
   6     -6.9586431 -0.107542E-05  0.194E-02    4.87       2.0  T
   7     -6.9586441 -0.950458E-06  0.490E-03    4.88       7.7  T
   8     -6.9586441 -0.125249E-07  0.588E-04    4.88      64.3  T
   9     -6.9586441  0.272244E-10  0.261E-04    4.88     144.6  T

   *** convergence criteria satisfied after 9 iterations ***

         #    Occupation            Energy/Eh            Energy/eV
      -------------------------------------------------------------
         1        2.0000           -0.9663667             -26.2962
         2        2.0000           -0.8653975             -23.5487
         3        2.0000           -0.8263548             -22.4863
         4        2.0000           -0.7986427             -21.7322
         5        2.0000           -0.7512386             -20.4422
         6        1.9976           -0.6660736             -18.1248
         7        1.0024           -0.6546554             -17.8141 (HOMO)
         8                         -0.4754784             -12.9384 (LUMO)
         9                         -0.1012982              -2.7565
        10                          0.0112238               0.3054
        11                          0.0232476               0.6326
        12                          0.2621467               7.1334
        13                          0.3549940               9.6599
      -------------------------------------------------------------
                  HL-Gap            0.1791770 Eh            4.8757 eV
             Fermi-level           -0.6127157 Eh          -16.6728 eV

 SCC (total)                   0 d,  0 h,  0 min,  0.034 sec
 SCC setup                      ...        0 min,  0.005 sec ( 15.466%)
 Dispersion                     ...        0 min,  0.002 sec (  7.107%)
 classical contributions        ...        0 min,  0.009 sec ( 27.316%)
 integral evaluation            ...        0 min,  0.000 sec (  0.641%)
 iterations                     ...        0 min,  0.002 sec (  4.708%)
 molecular gradient             ...        0 min,  0.015 sec ( 43.820%)
 printout                       ...        0 min,  0.000 sec (  0.862%)

         :::::::::::::::::::::::::::::::::::::::::::::::::::::
         ::                     SUMMARY                     ::
         :::::::::::::::::::::::::::::::::::::::::::::::::::::
         :: total energy              -6.756291529213 Eh    ::
         :: gradient norm              0.371751377564 Eh/a0 ::
         :: HOMO-LUMO gap              4.875655104387 eV    ::
         ::.................................................::
         :: SCC energy                -6.958644075138 Eh    ::
         :: -> isotropic ES            0.135493536675 Eh    ::
         :: -> anisotropic ES          0.008975002022 Eh    ::
         :: -> anisotropic XC          0.011458524813 Eh    ::
         :: -> dispersion             -0.001019280620 Eh    ::
         :: repulsion energy           0.202352545925 Eh    ::
         :: add. restraining           0.000000000000 Eh    ::
         :: total charge               1.000000000000 e     ::
         :::::::::::::::::::::::::::::::::::::::::::::::::::::

      ----------------------------------------------------------- 
     |                       L-ANC optimizer                     |
      ----------------------------------------------------------- 
          low memory version by Sebastian Ehlert

          ...................................................
          :                      SETUP                      :
          :.................................................:
          :   energy convergence        0.1000000E-05 Eh    :
          :   grad. convergence         0.8000000E-03 Eh/a0 :
          :   optimization log               true           :
          :   writing optlog all                1     steps :
          :   Hessian reset                    20     steps :
          :   maximium step len.        1.0000000     a0    :
          :   LBFGS images                     20           :
          ...................................................
 * calculating model hessian...
Using Lindh-Hessian (1995)
 Shifting diagonal of input Hessian by    1.0000000000000000E-002
 Lowest  eigenvalues of input Hessian
    0.000000    0.000000    0.000000    0.000000    0.000000    0.000000
    0.044237    0.066103    0.096556    0.163159    0.166429    0.239468
    0.317264    0.405767    0.460843    0.631324    1.125897    1.209538
 Highest eigenvalues
    0.631324    1.125897    1.209538    1.462268    1.663243    1.905649


........................................................................
.............................. CYCLE    1 ..............................
........................................................................

 iter      E             dE          RMSdq      gap      omega  full diag
   1     -6.9806497 -0.698065E+01  0.136E+00    4.97       0.0  T
   2     -6.9831837 -0.253397E-02  0.721E-01    4.96       1.0  T
   3     -6.9831966 -0.128920E-04  0.543E-01    5.03       1.0  T
   4     -6.9842264 -0.102984E-02  0.153E-01    5.01       1.0  T
   5     -6.9842307 -0.422977E-05  0.377E-02    5.00       1.0  T
   6     -6.9842320 -0.133275E-05  0.457E-03    5.00       8.3  T
   7     -6.9842320  0.257706E-08  0.200E-03    5.00      18.9  T
   8     -6.9842320 -0.434033E-08  0.154E-04    5.00     245.2  T
   9     -6.9842320 -0.124887E-10  0.105E-05    5.00    3605.3  T
     SCC iter.                  ...        0 min,  0.001 sec
     gradient                   ...        0 min,  0.000 sec
 * total energy  :    -6.8715255 Eh     change       -0.1152340E+00 Eh
   gradient norm :     0.1825554 Eh/a0  converged?    E=F G=F D=F
   step length   :     0.4969352 a0

........................................................................
.............................. CYCLE    2 ..............................
........................................................................

 iter      E             dE          RMSdq      gap      omega  full diag
   1     -7.0224996 -0.702250E+01  0.179E+00    5.84       0.0  T
   2     -7.0256245 -0.312493E-02  0.944E-01    5.80       1.0  T
   3     -7.0248764  0.748093E-03  0.627E-01    5.90       1.0  T
   4     -7.0264460 -0.156953E-02  0.177E-01    5.84       1.0  T
   5     -7.0264729 -0.269501E-04  0.679E-02    5.85       1.0  T
   6     -7.0264771 -0.416269E-05  0.987E-03    5.85       3.8  T
   7     -7.0264771 -0.490401E-07  0.142E-03    5.85      26.6  T
   8     -7.0264771 -0.428210E-08  0.254E-04    5.85     148.9  T
   9     -7.0264771 -0.256151E-10  0.274E-05    5.85    1377.5  T
     SCC iter.                  ...        0 min,  0.001 sec
     gradient                   ...        0 min,  0.001 sec
 * total energy  :    -6.9669363 Eh     change       -0.9541077E-01 Eh
   gradient norm :     0.1600269 Eh/a0  converged?    E=F G=F D=F
   step length   :     1.7009098 a0

........................................................................
.............................. CYCLE    3 ..............................
........................................................................

 iter      E             dE          RMSdq      gap      omega  full diag
   1     -7.0506237 -0.705062E+01  0.995E-01    7.35       0.0  T
   2     -7.0510714 -0.447755E-03  0.561E-01    7.37       1.0  T
   3     -7.0510636  0.784600E-05  0.166E-01    7.38       1.0  T
   4     -7.0511016 -0.380503E-04  0.671E-02    7.36       1.0  T
   5     -7.0511233 -0.216937E-04  0.317E-02    7.37       1.2  T
   6     -7.0511248 -0.148570E-05  0.518E-03    7.37       7.3  T
   7     -7.0511248 -0.215306E-07  0.420E-04    7.37      89.9  T
   8     -7.0511248 -0.202416E-10  0.197E-04    7.37     192.2  T
     SCC iter.                  ...        0 min,  0.002 sec
     gradient                   ...        0 min,  0.000 sec
 * total energy  :    -7.0015931 Eh     change       -0.3465685E-01 Eh
   gradient norm :     0.1480911 Eh/a0  converged?    E=F G=F D=F
   step length   :     0.5994804 a0

........................................................................
.............................. CYCLE    4 ..............................
........................................................................

 iter      E             dE          RMSdq      gap      omega  full diag
   1     -7.0859035 -0.708590E+01  0.847E-01    9.04       0.0  T
   2     -7.0859805 -0.769569E-04  0.507E-01    9.06       1.0  T
   3     -7.0859755  0.495331E-05  0.658E-02    9.05       1.0  T
   4     -7.0859934 -0.179226E-04  0.334E-02    9.06       1.1  T
   5     -7.0859964 -0.300467E-05  0.111E-02    9.06       3.4  T
   6     -7.0859965 -0.465387E-07  0.230E-03    9.06      16.4  T
   7     -7.0859965 -0.258011E-08  0.279E-04    9.06     135.6  T
   8     -7.0859965 -0.374722E-10  0.881E-05    9.06     428.9  T
     SCC iter.                  ...        0 min,  0.001 sec
     gradient                   ...        0 min,  0.000 sec
 * total energy  :    -7.0264952 Eh     change       -0.2490208E-01 Eh
   gradient norm :     0.1279425 Eh/a0  converged?    E=F G=F D=F
   step length   :     0.4805617 a0

........................................................................
.............................. CYCLE    5 ..............................
........................................................................

 iter      E             dE          RMSdq      gap      omega  full diag
   1     -7.1271510 -0.712715E+01  0.749E-01   10.13       0.0  T
   2     -7.1272706 -0.119618E-03  0.446E-01   10.17       1.0  T
   3     -7.1272014  0.692308E-04  0.181E-01   10.14       1.0  T
   4     -7.1273154 -0.114054E-03  0.159E-02   10.16       2.4  T
   5     -7.1273155 -0.118422E-06  0.414E-03   10.16       9.1  T
   6     -7.1273155 -0.415203E-08  0.133E-03   10.16      28.3  T
   7     -7.1273155 -0.695075E-09  0.175E-04   10.16     215.5  T
   8     -7.1273155 -0.148290E-10  0.244E-05   10.16    1551.7  T
     SCC iter.                  ...        0 min,  0.001 sec
     gradient                   ...        0 min,  0.001 sec
 * total energy  :    -7.0464951 Eh     change       -0.1999988E-01 Eh
   gradient norm :     0.1063190 Eh/a0  converged?    E=F G=F D=F
   step length   :     0.4070918 a0

........................................................................
.............................. CYCLE    6 ..............................
........................................................................

 iter      E             dE          RMSdq      gap      omega  full diag
   1     -7.1564257 -0.715643E+01  0.627E-01   11.27       0.0  T
   2     -7.1565679 -0.142262E-03  0.349E-01   11.31       1.0  T
   3     -7.1565420  0.259397E-04  0.164E-01   11.30       1.0  T
   4     -7.1566078 -0.657896E-04  0.190E-02   11.32       2.0  T
   5     -7.1566080 -0.214168E-06  0.671E-03   11.32       5.6  T
   6     -7.1566080 -0.223008E-07  0.122E-03   11.32      30.9  T
   7     -7.1566080 -0.511156E-09  0.139E-04   11.32     271.0  T
   8     -7.1566080 -0.688605E-11  0.399E-05   11.32     948.0  T
     SCC iter.                  ...        0 min,  0.001 sec
     gradient                   ...        0 min,  0.000 sec
 * total energy  :    -7.0637804 Eh     change       -0.1728530E-01 Eh
   gradient norm :     0.0731549 Eh/a0  converged?    E=F G=F D=F
   step length   :     0.3603293 a0

........................................................................
.............................. CYCLE    7 ..............................
........................................................................

 iter      E             dE          RMSdq      gap      omega  full diag
   1     -7.1669789 -0.716698E+01  0.639E-01   11.19       0.0  T
   2     -7.1670814 -0.102503E-03  0.361E-01   11.19       1.0  T
   3     -7.1671025 -0.211104E-04  0.449E-02   11.20       1.0  T
   4     -7.1671037 -0.114880E-05  0.200E-02   11.20       1.9  T
   5     -7.1671042 -0.482313E-06  0.730E-03   11.20       5.2  T
   6     -7.1671043 -0.119016E-06  0.147E-03   11.20      25.6  T
   7     -7.1671043 -0.125958E-08  0.187E-04   11.20     202.2  T
   8     -7.1671043 -0.137872E-10  0.573E-05   11.20     659.8  T
     SCC iter.                  ...        0 min,  0.001 sec
     gradient                   ...        0 min,  0.000 sec
 * total energy  :    -7.0732401 Eh     change       -0.9459730E-02 Eh
   gradient norm :     0.0410285 Eh/a0  converged?    E=F G=F D=F
   step length   :     0.4419320 a0

........................................................................
.............................. CYCLE    8 ..............................
........................................................................

 iter      E             dE          RMSdq      gap      omega  full diag
   1     -7.1790646 -0.717906E+01  0.272E-01   11.46       0.0  T
   2     -7.1791524 -0.878042E-04  0.141E-01   11.47       1.0  T
   3     -7.1791731 -0.206119E-04  0.887E-02   11.47       1.0  T
   4     -7.1791811 -0.802018E-05  0.103E-02   11.47       3.7  T
   5     -7.1791811 -0.576663E-07  0.369E-03   11.47      10.2  T
   6     -7.1791811 -0.405253E-08  0.657E-04   11.47      57.5  T
   7     -7.1791811 -0.189589E-09  0.715E-05   11.47     528.7  T
     SCC iter.                  ...        0 min,  0.001 sec
     gradient                   ...        0 min,  0.000 sec
 * total energy  :    -7.0745758 Eh     change       -0.1335635E-02 Eh
   gradient norm :     0.0323868 Eh/a0  converged?    E=F G=F D=F
   step length   :     0.1219488 a0

........................................................................
.............................. CYCLE    9 ..............................
........................................................................

 iter      E             dE          RMSdq      gap      omega  full diag
   1     -7.1769813 -0.717698E+01  0.120E-01   11.36       0.0  T
   2     -7.1769828 -0.141368E-05  0.705E-02   11.36       1.0  T
   3     -7.1769820  0.714055E-06  0.175E-02   11.36       2.2  T
   4     -7.1769832 -0.113947E-05  0.359E-03   11.36      10.5  T
   5     -7.1769832 -0.278883E-08  0.104E-03   11.36      36.5  T
   6     -7.1769832 -0.364782E-09  0.135E-04   11.36     280.2  T
   7     -7.1769832 -0.106635E-10  0.193E-05   11.36    1956.0  T
     SCC iter.                  ...        0 min,  0.007 sec
     gradient                   ...        0 min,  0.001 sec
 * total energy  :    -7.0757884 Eh     change       -0.1212605E-02 Eh
   gradient norm :     0.0204393 Eh/a0  converged?    E=F G=F D=F
   step length   :     0.0590455 a0

........................................................................
.............................. CYCLE   10 ..............................
........................................................................

 iter      E             dE          RMSdq      gap      omega  full diag
   1     -7.1752564 -0.717526E+01  0.306E-01   11.02       0.0  T
   2     -7.1752632 -0.675751E-05  0.179E-01   11.02       1.0  T
   3     -7.1752650 -0.177556E-05  0.182E-02   11.03       2.1  T
   4     -7.1752655 -0.516261E-06  0.864E-03   11.03       4.4  T
   5     -7.1752656 -0.603603E-07  0.138E-03   11.03      27.4  T
   6     -7.1752656 -0.181555E-08  0.400E-04   11.03      94.5  T
   7     -7.1752656 -0.117486E-09  0.503E-05   11.03     751.1  T
     SCC iter.                  ...        0 min,  0.002 sec
     gradient                   ...        0 min,  0.001 sec
 * total energy  :    -7.0772419 Eh     change       -0.1453499E-02 Eh
   gradient norm :     0.0162229 Eh/a0  converged?    E=F G=F D=F
   step length   :     0.1751316 a0

........................................................................
.............................. CYCLE   11 ..............................
........................................................................

 iter      E             dE          RMSdq      gap      omega  full diag
   1     -7.1768692 -0.717687E+01  0.648E-02   11.08       0.0  T
   2     -7.1768698 -0.553425E-06  0.380E-02   11.08       1.0  T
   3     -7.1768699 -0.107316E-06  0.392E-03   11.09       9.6  T
   4     -7.1768699 -0.249508E-07  0.231E-03   11.09      16.4  T
   5     -7.1768699 -0.817068E-08  0.805E-04   11.09      46.9  T
   6     -7.1768699 -0.101415E-09  0.156E-04   11.09     241.7  T
     SCC iter.                  ...        0 min,  0.001 sec
     gradient                   ...        0 min,  0.001 sec
 * total energy  :    -7.0775325 Eh     change       -0.2906919E-03 Eh
   gradient norm :     0.0118867 Eh/a0  converged?    E=F G=F D=F
   step length   :     0.0444601 a0

........................................................................
.............................. CYCLE   12 ..............................
........................................................................

 iter      E             dE          RMSdq      gap      omega  full diag
   1     -7.1793673 -0.717937E+01  0.794E-02   11.12       0.0  T
   2     -7.1793684 -0.109206E-05  0.459E-02   11.12       1.0  T
   3     -7.1793686 -0.223439E-06  0.667E-03   11.13       5.7  T
   4     -7.1793687 -0.714976E-07  0.296E-03   11.13      12.8  T
   5     -7.1793687 -0.103717E-07  0.956E-04   11.13      39.5  T
   6     -7.1793687 -0.688911E-09  0.205E-04   11.13     184.1  T
     SCC iter.                  ...        0 min,  0.001 sec
     gradient                   ...        0 min,  0.002 sec
 * total energy  :    -7.0778624 Eh     change       -0.3298295E-03 Eh
   gradient norm :     0.0086068 Eh/a0  converged?    E=F G=F D=F
   step length   :     0.0677845 a0

........................................................................
.............................. CYCLE   13 ..............................
........................................................................

 iter      E             dE          RMSdq      gap      omega  full diag
   1     -7.1805195 -0.718052E+01  0.722E-02   11.20       0.0  T
   2     -7.1805208 -0.134487E-05  0.400E-02   11.20       1.0  T
   3     -7.1805205  0.331174E-06  0.180E-02   11.20       2.1  T
   4     -7.1805212 -0.739861E-06  0.188E-03   11.20      20.2  T
   5     -7.1805212 -0.140329E-08  0.410E-04   11.20      92.1  T
   6     -7.1805212 -0.197806E-10  0.112E-04   11.20     337.1  T
     SCC iter.                  ...        0 min,  0.001 sec
     gradient                   ...        0 min,  0.001 sec
 * total energy  :    -7.0780265 Eh     change       -0.1640823E-03 Eh
   gradient norm :     0.0070230 Eh/a0  converged?    E=F G=F D=F
   step length   :     0.0437359 a0

........................................................................
.............................. CYCLE   14 ..............................
........................................................................

 iter      E             dE          RMSdq      gap      omega  full diag
   1     -7.1803517 -0.718035E+01  0.711E-02   11.20       0.0  T
   2     -7.1803528 -0.113393E-05  0.406E-02   11.20       1.0  T
   3     -7.1803524  0.384887E-06  0.159E-02   11.20       2.4  T
   4     -7.1803531 -0.696765E-06  0.146E-03   11.20      25.8  T
   5     -7.1803531 -0.729828E-09  0.585E-04   11.20      64.6  T
   6     -7.1803531 -0.651870E-10  0.784E-05   11.20     482.0  T
     SCC iter.                  ...        0 min,  0.001 sec
     gradient                   ...        0 min,  0.001 sec
 * total energy  :    -7.0780724 Eh     change       -0.4590174E-04 Eh
   gradient norm :     0.0079178 Eh/a0  converged?    E=F G=F D=F
   step length   :     0.0382705 a0

........................................................................
.............................. CYCLE   15 ..............................
........................................................................

 iter      E             dE          RMSdq      gap      omega  full diag
   1     -7.1798529 -0.717985E+01  0.504E-02   11.19       0.0  T
   2     -7.1798533 -0.339245E-06  0.293E-02   11.18       1.3  T
   3     -7.1798532  0.101551E-06  0.665E-03   11.18       5.7  T
   4     -7.1798533 -0.173542E-06  0.107E-03   11.18      35.3  T
   5     -7.1798533 -0.107941E-08  0.407E-04   11.18      92.8  T
   6     -7.1798533 -0.766782E-10  0.730E-05   11.18     517.6  T
     SCC iter.                  ...        0 min,  0.001 sec
     gradient                   ...        0 min,  0.001 sec
 * total energy  :    -7.0781089 Eh     change       -0.3649628E-04 Eh
   gradient norm :     0.0048589 Eh/a0  converged?    E=F G=F D=F
   step length   :     0.0269318 a0

........................................................................
.............................. CYCLE   16 ..............................
........................................................................

 iter      E             dE          RMSdq      gap      omega  full diag
   1     -7.1799162 -0.717992E+01  0.268E-02   11.20       0.0  T
   2     -7.1799164 -0.194743E-06  0.149E-02   11.20       2.5  T
   3     -7.1799163  0.347997E-07  0.597E-03   11.20       6.3  T
   4     -7.1799164 -0.952210E-07  0.856E-04   11.20      44.2  T
   5     -7.1799164 -0.312028E-09  0.121E-04   11.20     313.5  T
     SCC iter.                  ...        0 min,  0.001 sec
     gradient                   ...        0 min,  0.000 sec
 * total energy  :    -7.0781312 Eh     change       -0.2234853E-04 Eh
   gradient norm :     0.0030265 Eh/a0  converged?    E=F G=F D=F
   step length   :     0.0176669 a0

........................................................................
.............................. CYCLE   17 ..............................
........................................................................

 iter      E             dE          RMSdq      gap      omega  full diag
   1     -7.1795729 -0.717957E+01  0.218E-02   11.17       0.0  T
   2     -7.1795731 -0.188685E-06  0.110E-02   11.17       3.4  T
   3     -7.1795731  0.102955E-07  0.606E-03   11.17       6.2  T
   4     -7.1795731 -0.641203E-07  0.463E-04   11.17      81.6  T
   5     -7.1795731 -0.997460E-10  0.189E-04   11.17     199.7  T
     SCC iter.                  ...        0 min,  0.001 sec
     gradient                   ...        0 min,  0.001 sec
 * total energy  :    -7.0781438 Eh     change       -0.1259888E-04 Eh
   gradient norm :     0.0022633 Eh/a0  converged?    E=F G=F D=F
   step length   :     0.0093338 a0

........................................................................
.............................. CYCLE   18 ..............................
........................................................................

 iter      E             dE          RMSdq      gap      omega  full diag
   1     -7.1793956 -0.717940E+01  0.250E-02   11.16       0.0  T
   2     -7.1793958 -0.195677E-06  0.135E-02   11.16       2.8  T
   3     -7.1793957  0.297269E-07  0.615E-03   11.16       6.1  T
   4     -7.1793958 -0.795421E-07  0.532E-04   11.16      71.0  T
   5     -7.1793958 -0.235934E-09  0.224E-04   11.16     168.5  T
     SCC iter.                  ...        0 min,  0.001 sec
     gradient                   ...        0 min,  0.002 sec
 * total energy  :    -7.0781539 Eh     change       -0.1007651E-04 Eh
   gradient norm :     0.0015412 Eh/a0  converged?    E=F G=F D=F
   step length   :     0.0108110 a0

........................................................................
.............................. CYCLE   19 ..............................
........................................................................

 iter      E             dE          RMSdq      gap      omega  full diag
   1     -7.1793451 -0.717935E+01  0.271E-02   11.16       0.0  T
   2     -7.1793454 -0.300187E-06  0.143E-02   11.16       2.6  T
   3     -7.1793454  0.112571E-07  0.709E-03   11.16       5.3  T
   4     -7.1793455 -0.980581E-07  0.792E-04   11.16      47.7  T
   5     -7.1793455 -0.171155E-09  0.291E-04   11.16     129.7  T
     SCC iter.                  ...        0 min,  0.004 sec
     gradient                   ...        0 min,  0.000 sec
 * total energy  :    -7.0781601 Eh     change       -0.6248115E-05 Eh
   gradient norm :     0.0009282 Eh/a0  converged?    E=F G=F D=F
   step length   :     0.0174996 a0

........................................................................
.............................. CYCLE   20 ..............................
........................................................................

 iter      E             dE          RMSdq      gap      omega  full diag
   1     -7.1795571 -0.717956E+01  0.843E-03   11.18       0.0  T
   2     -7.1795571 -0.103868E-07  0.467E-03   11.18       8.1  T
   3     -7.1795571 -0.262675E-09  0.967E-04   11.18      39.1  T
   4     -7.1795571 -0.249273E-08  0.262E-04   11.18     144.0  T
     SCC iter.                  ...        0 min,  0.001 sec
     gradient                   ...        0 min,  0.001 sec
 * total energy  :    -7.0781616 Eh     change       -0.1515575E-05 Eh
   gradient norm :     0.0002279 Eh/a0  converged?    E=F G=T D=F
   step length   :     0.0048723 a0
 * RMSD in coord.:     1.1204869 a0     energy gain  -0.3218701E+00 Eh
 * calculating model hessian...
Using Lindh-Hessian (1995)
 Shifting diagonal of input Hessian by    1.0000000000000000E-002
 Lowest  eigenvalues of input Hessian
    0.000000    0.000000    0.000000    0.000000    0.000000    0.000000
    0.037693    0.054868    0.081180    0.109138    0.111954    0.120928
    0.184698    0.221265    0.278859    0.411313    0.846778    0.993217
 Highest eigenvalues
    0.411313    0.846778    0.993217    1.150238    1.586700    1.852486


........................................................................
.............................. CYCLE   21 ..............................
........................................................................

 iter      E             dE          RMSdq      gap      omega  full diag
   1     -7.1795706 -0.717957E+01  0.358E-03   11.18       0.0  T
   2     -7.1795706 -0.109135E-08  0.203E-03   11.18      18.7  T
   3     -7.1795706  0.500605E-09  0.461E-04   11.18      82.0  T
   4     -7.1795706 -0.879371E-09  0.624E-05   11.18     605.4  T
     SCC iter.                  ...        0 min,  0.004 sec
     gradient                   ...        0 min,  0.001 sec
 * total energy  :    -7.0781618 Eh     change       -0.1772315E-06 Eh
   gradient norm :     0.0001087 Eh/a0  converged?    E=T G=T D=F
   step length   :     0.0017520 a0

   *** GEOMETRY OPTIMIZATION CONVERGED AFTER 21 CYCLES ***

------------------------------------------------------------------------
 total energy gain   :        -0.3218703 Eh     -201.9767 kcal/mol
 total RMSD          :         1.1207583 a0        0.5931 Å
 total power (kW/mol):       -40.2414448 (step)********** (real)
------------------------------------------------------------------------

 L-ANCopt (total)              0 d,  0 h,  0 min,  0.082 sec
 setup                          ...        0 min,  0.001 sec (  1.567%)
 model hessian                  ...        0 min,  0.000 sec (  0.555%)
 ANC generation                 ...        0 min,  0.000 sec (  0.386%)
 coordinate transformation      ...        0 min,  0.000 sec (  0.078%)
 Rational function              ...        0 min,  0.000 sec (  0.052%)
 singlepoint calculation        ...        0 min,  0.074 sec ( 90.295%)
 optimization log               ...        0 min,  0.002 sec (  2.241%)
 hessian update                 ...        0 min,  0.000 sec (  0.123%)

================
 final structure:
================
7
 xtb: 6.7.1 (edcfbbe)
C            7.29888690002331        0.08436987172336        3.86491803090587
N            7.36418122384317        0.08371852710270        5.23464107589081
H            6.24173110888231        0.08364677701652        3.49544181862523
H            7.38944527702902        0.95088224006070        5.76258543592093
H            7.38826186871743       -0.78394154184697        5.76177315173791
H            7.70734844694752        1.00762561680703        3.43095389506011
H            7.70817578965709       -0.83823486545282        3.43012758486032

 Bond Distances (Angstroems)
 ---------------------------
C1-N2=1.3713         C1-H3=1.1199         C1-H6=1.0989         C1-H7=1.0990         N2-C1=1.3713         N2-H4=1.0155         
N2-H5=1.0155         H3-C1=1.1199         H4-N2=1.0155         H5-N2=1.0155         H6-C1=1.0989         H7-C1=1.0990         
 C  H  Rav=1.1059 sigma=0.0099  Rmin=1.0989  Rmax=1.1199     3
 N  H  Rav=1.0155 sigma=0.0000  Rmin=1.0155  Rmax=1.0155     2
 N  C  Rav=1.3713 sigma=0.0000  Rmin=1.3713  Rmax=1.3713     1

 selected bond angles (degree)
 --------------------
H3-C1-N2=111.99                H6-C1-N2=112.16                H6-C1-H3=102.78                H7-C1-N2=112.15                
H7-C1-H3=102.74                H7-C1-H6=114.25                H4-N2-C1=121.34                H5-N2-C1=121.33                
H5-N2-H4=117.33                

 selected dihedral angles (degree)
 ---------------------------------
H4-N2-C1-H3=269.94            H4-N2-C1-H6= 24.90            H4-N2-C1-H7=155.03            H5-N2-C1-H3= 89.88            
H5-N2-C1-H6=204.84            H5-N2-C1-H7=334.97            
           -------------------------------------------------
          |                Final Singlepoint                |
           -------------------------------------------------

          ...................................................
          :                      SETUP                      :
          :.................................................:
          :  # basis functions                  13          :
          :  # atomic orbitals                  13          :
          :  # shells                            9          :
          :  # electrons                        13          :
          :  max. iterations                   250          :
          :  Hamiltonian                  GFN2-xTB          :
          :  restarted?                      false          :
          :  GBSA solvation                  false          :
          :  PC potential                    false          :
          :  electronic temp.          300.0000000     K    :
          :  accuracy                    1.0000000          :
          :  -> integral cutoff          0.2500000E+02      :
          :  -> integral neglect         0.1000000E-07      :
          :  -> SCF convergence          0.1000000E-05 Eh   :
          :  -> wf. convergence          0.1000000E-03 e    :
          :  Broyden damping             0.4000000          :
          :  net charge                          1          :
          :  unpaired electrons                  1          :
          ...................................................

 iter      E             dE          RMSdq      gap      omega  full diag
   1     -7.1795706 -0.717957E+01  0.102E-05   11.18       0.0  T
   2     -7.1795706 -0.399680E-13  0.605E-06   11.18    6251.5  T
   3     -7.1795706  0.000000E+00  0.805E-07   11.18   46971.7  T

   *** convergence criteria satisfied after 3 iterations ***

         #    Occupation            Energy/Eh            Energy/eV
      -------------------------------------------------------------
         1        2.0000           -0.9138809             -24.8680
         2        2.0000           -0.8466295             -23.0380
         3        2.0000           -0.8078095             -21.9816
         4        2.0000           -0.7810920             -21.2546
         5        2.0000           -0.7714349             -20.9918
         6        2.0000           -0.7077328             -19.2584
         7        1.0000           -0.6473531             -17.6154 (HOMO)
         8                         -0.2365040              -6.4356 (LUMO)
         9                         -0.1048662              -2.8536
        10                         -0.0917148              -2.4957
        11                         -0.0902400              -2.4556
        12                          0.0214648               0.5841
        13                          0.0777680               2.1162
      -------------------------------------------------------------
                  HL-Gap            0.4108491 Eh           11.1798 eV
             Fermi-level           -0.5597357 Eh          -15.2312 eV

 SCC (total)                   0 d,  0 h,  0 min,  0.006 sec
 SCC setup                      ...        0 min,  0.001 sec (  9.720%)
 Dispersion                     ...        0 min,  0.000 sec (  1.644%)
 classical contributions        ...        0 min,  0.000 sec (  1.148%)
 integral evaluation            ...        0 min,  0.000 sec (  4.636%)
 iterations                     ...        0 min,  0.001 sec ( 15.501%)
 molecular gradient             ...        0 min,  0.004 sec ( 65.750%)
 printout                       ...        0 min,  0.000 sec (  1.268%)

         :::::::::::::::::::::::::::::::::::::::::::::::::::::
         ::                     SUMMARY                     ::
         :::::::::::::::::::::::::::::::::::::::::::::::::::::
         :: total energy              -7.078161822686 Eh    ::
         :: gradient norm              0.000108754885 Eh/a0 ::
         :: HOMO-LUMO gap             11.179771982678 eV    ::
         ::.................................................::
         :: SCC energy                -7.179570484166 Eh    ::
         :: -> isotropic ES            0.118217487656 Eh    ::
         :: -> anisotropic ES         -0.016787138731 Eh    ::
         :: -> anisotropic XC          0.011017794697 Eh    ::
         :: -> dispersion             -0.001052666579 Eh    ::
         :: repulsion energy           0.101408661480 Eh    ::
         :: add. restraining           0.000000000000 Eh    ::
         :: total charge               1.000000000000 e     ::
         :::::::::::::::::::::::::::::::::::::::::::::::::::::

           -------------------------------------------------
          |                Property Printout                |
           -------------------------------------------------

    * Orbital Energies and Occupations

         #    Occupation            Energy/Eh            Energy/eV
      -------------------------------------------------------------
         1        2.0000           -0.9138809             -24.8680
         2        2.0000           -0.8466295             -23.0380
         3        2.0000           -0.8078095             -21.9816
         4        2.0000           -0.7810920             -21.2546
         5        2.0000           -0.7714349             -20.9918
         6        2.0000           -0.7077328             -19.2584
         7        1.0000           -0.6473531             -17.6154 (HOMO)
         8                         -0.2365040              -6.4356 (LUMO)
         9                         -0.1048662              -2.8536
        10                         -0.0917148              -2.4957
        11                         -0.0902400              -2.4556
        12                          0.0214648               0.5841
        13                          0.0777680               2.1162
      -------------------------------------------------------------
                  HL-Gap            0.4108491 Eh           11.1798 eV
             Fermi-level           -0.5597357 Eh          -15.2312 eV

     #   Z          covCN         q      C6AA      α(0)
     1   6 C        3.676    -0.068    22.046     6.727
     2   7 N        2.630    -0.069    22.592     7.059
     3   1 H        0.920     0.246     0.893     1.478
     4   1 H        0.860     0.265     0.827     1.424
     5   1 H        0.860     0.265     0.827     1.424
     6   1 H        0.923     0.180     1.204     1.716
     7   1 H        0.923     0.180     1.203     1.715

 Mol. C6AA /au·bohr⁶  :        206.911523
 Mol. C8AA /au·bohr⁸  :       4189.684176
 Mol. α(0) /au        :         21.544380


Wiberg/Mayer (AO) data.
largest (>0.10) Wiberg bond orders for each atom

 ---------------------------------------------------------------------------
     #   Z sym  total        # sym  WBO       # sym  WBO       # sym  WBO
 ---------------------------------------------------------------------------
     1   6 C    3.917 --     2 N    1.350     6 H    0.904     7 H    0.904
                             3 H    0.759
     2   7 N    3.352 --     1 C    1.350     5 H    0.914     4 H    0.914
                             3 H    0.117
     3   1 H    0.911 --     1 C    0.759     2 N    0.117
     4   1 H    0.930 --     2 N    0.914
     5   1 H    0.930 --     2 N    0.914
     6   1 H    0.966 --     1 C    0.904
     7   1 H    0.966 --     1 C    0.904
 ---------------------------------------------------------------------------

Topologies differ in total number of bonds
Writing topology from bond orders to xtbtopo.mol

molecular dipole:
                 x           y           z       tot (Debye)
 q only:       13.661       0.158       8.558
   full:       13.642       0.158       8.647      41.056
molecular quadrupole (traceless):
                xx          xy          yy          xz          yz          zz
 q only:      147.364       3.243    -130.562     176.249       2.031     -16.802
  q+dip:      145.623       3.235    -130.147     177.985       2.051     -15.476
   full:      145.913       3.235    -130.611     177.939       2.051     -15.301

           -------------------------------------------------
          |                Geometry Summary                 |
           -------------------------------------------------

      molecular mass/u    :       31.0571429
   center of mass at/Å    :        7.3264050       0.0840154       4.5656234
  moments of inertia/u·Å² :        0.4688291E+01   0.2032020E+02   0.2209969E+02
rotational constants/cm⁻¹ :        0.3595688E+01   0.8295997E+00   0.7627997E+00

 * 6 selected distances

     #   Z          #   Z                                           value/Å
     1   6 C        2   7 N                                       1.3712787 (max)
     1   6 C        3   1 H                                       1.1198624
     2   7 N        4   1 H                                       1.0155474
     2   7 N        5   1 H                                       1.0155207 (min)
     1   6 C        6   1 H                                       1.0988936
     1   6 C        7   1 H                                       1.0989813

 * 3 distinct bonds (by element types)

   Z      Z             #   av. dist./Å        max./Å        min./Å
   1 H    6 C           3     1.1059124     1.1198624     1.0988936
   1 H    7 N           2     1.0155341     1.0155474     1.0155207
   6 C    7 N           1     1.3712787     1.3712787     1.3712787


optimized geometry written to: xtbopt.xyz


           -------------------------------------------------
          | TOTAL ENERGY               -7.078161822686 Eh   |
          | GRADIENT NORM               0.000108754885 Eh/α |
          | HOMO-LUMO GAP              11.179771982678 eV   |
           -------------------------------------------------

------------------------------------------------------------------------
 * finished run on 2026/09/29 at 15:12:07.302     
------------------------------------------------------------------------
 total:
 * wall-time:     0 d,  0 h,  0 min,  0.172 sec
 *  cpu-time:     0 d,  0 h,  0 min,  0.065 sec
 * ratio c/w:     0.379 speedup
 SCF:
 * wall-time:     0 d,  0 h,  0 min,  0.035 sec
 *  cpu-time:     0 d,  0 h,  0 min,  0.003 sec
 * ratio c/w:     0.096 speedup
 ANC optimizer:
 * wall-time:     0 d,  0 h,  0 min,  0.100 sec
 *  cpu-time:     0 d,  0 h,  0 min,  0.056 sec
 * ratio c/w:     0.561 speedup

