7
 energy: -7.078161822686 gnorm: 0.000108754885 xtb: 6.7.1 (edcfbbe)
C            7.29888690002331        0.08436987172336        3.86491803090587
N            7.36418122384317        0.08371852710270        5.23464107589081
H            6.24173110888231        0.08364677701652        3.49544181862523
H            7.38944527702902        0.95088224006070        5.76258543592093
H            7.38826186871743       -0.78394154184697        5.76177315173791
H            7.70734844694752        1.00762561680703        3.43095389506011
H            7.70817578965709       -0.83823486545282        3.43012758486032
