      -----------------------------------------------------------      
     |                   =====================                   |     
     |                           x T B                           |     
     |                   =====================                   |     
     |                         S. Grimme                         |     
     |          Mulliken Center for Theoretical Chemistry        |     
     |                    University of Bonn                     |     
      -----------------------------------------------------------      

   * xtb version 6.7.1 (edcfbbe) compiled by 'runner@Mac-1732539442253.local' on 2024-11-25

   xtb is free software: you can redistribute it and/or modify it under
   the terms of the GNU Lesser General Public License as published by
   the Free Software Foundation, either version 3 of the License, or
   (at your option) any later version.
   
   xtb is distributed in the hope that it will be useful,
   but WITHOUT ANY WARRANTY; without even the implied warranty of
   MERCHANTABILITY or FITNESS FOR A PARTICULAR PURPOSE.  See the
   GNU Lesser General Public License for more details.
   
   Cite this work as:
   * C. Bannwarth, E. Caldeweyher, S. Ehlert, A. Hansen, P. Pracht,
     J. Seibert, S. Spicher, S. Grimme, WIREs Comput. Mol. Sci., 2020, 11,
     e01493. DOI: 10.1002/wcms.1493
   
   for GFN2-xTB:
   * C. Bannwarth, S. Ehlert and S. Grimme., J. Chem. Theory Comput., 2019,
     15, 1652-1671. DOI: 10.1021/acs.jctc.8b01176
   for GFN1-xTB:
   * S. Grimme, C. Bannwarth, P. Shushkov, J. Chem. Theory Comput., 2017,
     13, 1989-2009. DOI: 10.1021/acs.jctc.7b00118
   for GFN0-xTB:
   * P. Pracht, E. Caldeweyher, S. Ehlert, S. Grimme, ChemRxiv, 2019, preprint.
     DOI: 10.26434/chemrxiv.8326202.v1
   for GFN-FF:
   * S. Spicher and S. Grimme, Angew. Chem. Int. Ed., 2020, 59, 15665-15673.
     DOI: 10.1002/anie.202004239
   
   for ALPB and GBSA implicit solvation:
   * S. Ehlert, M. Stahn, S. Spicher, S. Grimme, J. Chem. Theory Comput.,
     2021, 17, 4250-4261. DOI: 10.1021/acs.jctc.1c00471
   
   for ddCOSMO and CPCM-X implicit solvation:
   * M. Stahn, S. Ehlert, S. Grimme, J. Phys. Chem. A,
     2023, XX, XXXX-XXXX. DOI: 10.1021/acs.jpca.3c04382
   
   for DFT-D4:
   * E. Caldeweyher, C. Bannwarth and S. Grimme, J. Chem. Phys., 2017,
     147, 034112. DOI: 10.1063/1.4993215
   * E. Caldeweyher, S. Ehlert, A. Hansen, H. Neugebauer, S. Spicher,
     C. Bannwarth and S. Grimme, J. Chem. Phys., 2019, 150, 154122.
     DOI: 10.1063/1.5090222
   * E. Caldeweyher, J.-M. Mewes, S. Ehlert and S. Grimme, Phys. Chem. Chem. Phys.
     2020, 22, 8499-8512. DOI: 10.1039/D0CP00502A
   
   for sTDA-xTB:
   * S. Grimme and C. Bannwarth, J. Chem. Phys., 2016, 145, 054103.
     DOI: 10.1063/1.4959605
   
   in the mass-spec context:
   * V. Asgeirsson, C. Bauer and S. Grimme, Chem. Sci., 2017, 8, 4879.
     DOI: 10.1039/c7sc00601b
   * J. Koopman and S. Grimme, ACS Omega 2019, 4, 12, 15120-15133.
     DOI: 10.1021/acsomega.9b02011
   
   for metadynamics refer to:
   * S. Grimme, J. Chem. Theory Comput., 2019, 155, 2847-2862
     DOI: 10.1021/acs.jctc.9b00143
   
   for SPH calculations refer to:
   * S. Spicher and S. Grimme, J. Chem. Theory Comput., 2021, 17, 1701-1714
     DOI: 10.1021/acs.jctc.0c01306
   
   for ONIOM refer to:
   * C. Plett, A. Katbashev, S. Ehlert, S. Grimme, M. Bursch,
     Phys. Chem. Chem. Phys., 2023, 25, 17860-17868. DOI: 10.1039/D3CP02178E
   
   for DIPRO refer to:
   * J. Kohn, N. Gildemeister, S. Grimme, D. Fazzi, A. Hansen,
     J. Chem. Phys., 2023, just accepted.
   
   for PTB refer to:
   * S. Grimme, M. Mueller, A. Hansen, J. Chem. Phys., 2023, 158, 124111.
     DOI: 10.1063/5.0137838
   
   with help from (in alphabetical order)
   P. Atkinson, C. Bannwarth, F. Bohle, G. Brandenburg, E. Caldeweyher
   M. Checinski, S. Dohm, S. Ehlert, S. Ehrlich, I. Gerasimov, C. Hölzer
   A. Katbashev, J. Kohn, J. Koopman, C. Lavigne, S. Lehtola, F. März, M. Müller,
   F. Musil, H. Neugebauer, J. Pisarek, C. Plett, P. Pracht, F. Pultar,
   J. Seibert, P. Shushkov, S. Spicher, M. Stahn, M. Steiner, T. Strunk,
   J. Stückrath, T. Rose, and J. Unsleber
   
 * started run on 2026/09/29 at 15:12:08.554     
   ID    Z sym.   atoms
    1    6 C      1, 2, 4
    2    7 N      3
    3    8 O      5, 6
    4    1 H      7-13

           -------------------------------------------------
          |                Calculation Setup                |
           -------------------------------------------------

          program call               : xtb in.xyz --opt tight --input xcontrol --chrg 1 --uhf 1
          coordinate file            : in.xyz
          omp threads                :                     4


           -------------------------------------------------
          |                 G F N 2 - x T B                 |
           -------------------------------------------------

        Reference                      10.1021/acs.jctc.8b01176
      * Hamiltonian:
        H0-scaling (s, p, d)           1.850000    2.230000    2.230000
        zeta-weighting                 0.500000
      * Dispersion:
        s8                             2.700000
        a1                             0.520000
        a2                             5.000000
        s9                             5.000000
      * Repulsion:
        kExp                           1.500000    1.000000
        rExp                           1.000000
      * Coulomb:
        alpha                          2.000000
        third order                    shell-resolved
        anisotropic                    true
        a3                             3.000000
        a5                             4.000000
        cn-shift                       1.200000
        cn-exp                         4.000000
        max-rad                        5.000000

q/qsh data taken from xtbrestart
CAMM data taken from xtbrestart

          ...................................................
          :                      SETUP                      :
          :.................................................:
          :  # basis functions                  31          :
          :  # atomic orbitals                  31          :
          :  # shells                           19          :
          :  # electrons                        35          :
          :  max. iterations                   250          :
          :  Hamiltonian                  GFN2-xTB          :
          :  restarted?                       true          :
          :  GBSA solvation                  false          :
          :  PC potential                    false          :
          :  electronic temp.          300.0000000     K    :
          :  accuracy                    1.0000000          :
          :  -> integral cutoff          0.2500000E+02      :
          :  -> integral neglect         0.1000000E-07      :
          :  -> SCF convergence          0.1000000E-05 Eh   :
          :  -> wf. convergence          0.1000000E-03 e    :
          :  Broyden damping             0.4000000          :
          :  net charge                          1          :
          :  unpaired electrons                  1          :
          ...................................................

 iter      E             dE          RMSdq      gap      omega  full diag
   1    -20.6770442 -0.206770E+02  0.188E+00    4.44       0.0  T
   2    -20.6003794  0.766649E-01  0.293E+00    4.11       1.0  T
   3    -20.6860988 -0.857195E-01  0.105E+00    4.70       1.0  T
   4    -20.6539591  0.321397E-01  0.175E+00    4.34       1.0  T
   5    -20.6949286 -0.409695E-01  0.170E-01    4.60       1.0  T
   6    -20.6949307 -0.204927E-05  0.874E-02    4.60       1.0  T
   7    -20.6949578 -0.271730E-04  0.475E-02    4.59       1.0  T
   8    -20.6949620 -0.414814E-05  0.307E-02    4.60       1.0  T
   9    -20.6949700 -0.807124E-05  0.143E-02    4.60       1.9  T
  10    -20.6949718 -0.179230E-05  0.542E-03    4.60       5.1  T
  11    -20.6949723 -0.431804E-06  0.940E-04    4.60      29.5  T
  12    -20.6949722  0.244521E-07  0.153E-03    4.60      18.1  T
  13    -20.6949723 -0.285834E-07  0.149E-04    4.60     185.8  T

   *** convergence criteria satisfied after 13 iterations ***

         #    Occupation            Energy/Eh            Energy/eV
      -------------------------------------------------------------
         1        2.0000           -0.9680524             -26.3420
       ...           ...                  ...                  ...
        12        2.0000           -0.7300776             -19.8664
        13        2.0000           -0.7215807             -19.6352
        14        2.0000           -0.7001394             -19.0518
        15        2.0000           -0.6929193             -18.8553
        16        2.0000           -0.6798540             -18.4998
        17        1.9665           -0.6558521             -17.8466
        18        1.0335           -0.6494660             -17.6729 (HOMO)
        19                         -0.4805135             -13.0754 (LUMO)
        20                         -0.2405503              -6.5457
        21                         -0.1848312              -5.0295
        22                         -0.1648942              -4.4870
        23                         -0.1143669              -3.1121
       ...                                ...                  ...
        31                          0.3414129               9.2903
      -------------------------------------------------------------
                  HL-Gap            0.1689525 Eh            4.5974 eV
             Fermi-level           -0.6088244 Eh          -16.5670 eV

 SCC (total)                   0 d,  0 h,  0 min,  0.026 sec
 SCC setup                      ...        0 min,  0.000 sec (  0.581%)
 Dispersion                     ...        0 min,  0.000 sec (  0.518%)
 classical contributions        ...        0 min,  0.000 sec (  0.320%)
 integral evaluation            ...        0 min,  0.003 sec ( 10.588%)
 iterations                     ...        0 min,  0.020 sec ( 76.967%)
 molecular gradient             ...        0 min,  0.003 sec ( 10.287%)
 printout                       ...        0 min,  0.000 sec (  0.644%)

         :::::::::::::::::::::::::::::::::::::::::::::::::::::
         ::                     SUMMARY                     ::
         :::::::::::::::::::::::::::::::::::::::::::::::::::::
         :: total energy             -20.504249327004 Eh    ::
         :: gradient norm              0.121705468906 Eh/a0 ::
         :: HOMO-LUMO gap              4.597430916388 eV    ::
         ::.................................................::
         :: SCC energy               -20.694963599924 Eh    ::
         :: -> isotropic ES            0.136602456850 Eh    ::
         :: -> anisotropic ES         -0.004559495132 Eh    ::
         :: -> anisotropic XC          0.007196407474 Eh    ::
         :: -> dispersion             -0.006002733314 Eh    ::
         :: repulsion energy           0.190714272920 Eh    ::
         :: add. restraining           0.000000000000 Eh    ::
         :: total charge               1.000000000000 e     ::
         :::::::::::::::::::::::::::::::::::::::::::::::::::::

      ----------------------------------------------------------- 
     |                       L-ANC optimizer                     |
      ----------------------------------------------------------- 
          low memory version by Sebastian Ehlert

          ...................................................
          :                      SETUP                      :
          :.................................................:
          :   energy convergence        0.1000000E-05 Eh    :
          :   grad. convergence         0.8000000E-03 Eh/a0 :
          :   optimization log               true           :
          :   writing optlog all                1     steps :
          :   Hessian reset                    20     steps :
          :   maximium step len.        1.0000000     a0    :
          :   LBFGS images                     20           :
          ...................................................
 * calculating model hessian...
Using Lindh-Hessian (1995)
 Shifting diagonal of input Hessian by    1.0000000000000000E-002
 Lowest  eigenvalues of input Hessian
    0.000000    0.000000    0.000000    0.000000    0.000000    0.000000
    0.017022    0.019479    0.022648    0.027552    0.029429    0.036037
    0.056144    0.059122    0.062648    0.070698    0.078663    0.081715
 Highest eigenvalues
    1.207708    1.264388    1.272698    1.340041    1.605932    2.232338


........................................................................
.............................. CYCLE    1 ..............................
........................................................................

 iter      E             dE          RMSdq      gap      omega  full diag
   1    -20.7201810 -0.207202E+02  0.463E-01    4.80       0.0  T
   2    -20.7138178  0.636323E-02  0.756E-01    4.83       1.0  T
   3    -20.7211157 -0.729786E-02  0.258E-01    4.74       1.0  T
   4    -20.7215732 -0.457546E-03  0.970E-02    4.79       1.0  T
   5    -20.7216451 -0.718805E-04  0.212E-02    4.77       1.3  T
   6    -20.7216473 -0.223842E-05  0.117E-02    4.77       2.4  T
   7    -20.7216480 -0.691843E-06  0.451E-03    4.78       6.1  T
   8    -20.7216482 -0.127079E-06  0.206E-03    4.77      13.5  T
   9    -20.7216482 -0.404399E-07  0.328E-04    4.77      84.6  T
  10    -20.7216482 -0.721450E-10  0.132E-04    4.77     210.0  T
     SCC iter.                  ...        0 min,  0.027 sec
     gradient                   ...        0 min,  0.006 sec
 * total energy  :   -20.5177023 Eh     change       -0.1345302E-01 Eh
   gradient norm :     0.0728052 Eh/a0  converged?    E=F G=F D=F
   step length   :     0.2857266 a0

........................................................................
.............................. CYCLE    2 ..............................
........................................................................

 iter      E             dE          RMSdq      gap      omega  full diag
   1    -20.7377256 -0.207377E+02  0.665E-01    4.69       0.0  T
   2    -20.7381432 -0.417535E-03  0.541E-01    4.72       1.0  T
   3    -20.7404387 -0.229555E-02  0.250E-01    4.65       1.0  T
   4    -20.7405705 -0.131816E-03  0.896E-02    4.69       1.0  T
   5    -20.7406202 -0.496303E-04  0.236E-02    4.67       1.2  T
   6    -20.7406222 -0.204022E-05  0.906E-03    4.67       3.1  T
   7    -20.7406225 -0.300333E-06  0.303E-03    4.67       9.2  T
   8    -20.7406225 -0.268885E-07  0.123E-03    4.67      22.5  T
   9    -20.7406225 -0.154546E-08  0.236E-04    4.67     117.7  T
  10    -20.7406225 -0.135170E-09  0.123E-04    4.67     225.7  T
     SCC iter.                  ...        0 min,  0.033 sec
     gradient                   ...        0 min,  0.002 sec
 * total energy  :   -20.5268819 Eh     change       -0.9179531E-02 Eh
   gradient norm :     0.0762976 Eh/a0  converged?    E=F G=F D=F
   step length   :     0.7352822 a0

........................................................................
.............................. CYCLE    3 ..............................
........................................................................

 iter      E             dE          RMSdq      gap      omega  full diag
   1    -20.7496124 -0.207496E+02  0.198E-01    4.57       0.0  T
   2    -20.7496231 -0.107253E-04  0.136E-01    4.58       1.0  T
   3    -20.7495595  0.636252E-04  0.900E-02    4.55       1.0  T
   4    -20.7496522 -0.926682E-04  0.144E-02    4.57       1.9  T
   5    -20.7496530 -0.821872E-06  0.562E-03    4.57       4.9  T
   6    -20.7496530 -0.544454E-07  0.225E-03    4.57      12.3  T
   7    -20.7496530 -0.174456E-07  0.658E-04    4.57      42.1  T
   8    -20.7496530 -0.935504E-09  0.258E-04    4.57     107.6  T
     SCC iter.                  ...        0 min,  0.014 sec
     gradient                   ...        0 min,  0.002 sec
 * total energy  :   -20.5308690 Eh     change       -0.3987164E-02 Eh
   gradient norm :     0.0366122 Eh/a0  converged?    E=F G=F D=F
   step length   :     0.2281750 a0

........................................................................
.............................. CYCLE    4 ..............................
........................................................................

 iter      E             dE          RMSdq      gap      omega  full diag
   1    -20.7519199 -0.207519E+02  0.210E-01    4.36       0.0  T
   2    -20.7519545 -0.346044E-04  0.129E-01    4.37       1.0  T
   3    -20.7519197  0.348166E-04  0.803E-02    4.35       1.0  T
   4    -20.7519770 -0.572455E-04  0.186E-02    4.37       1.5  T
   5    -20.7519790 -0.209229E-05  0.690E-03    4.36       4.0  T
   6    -20.7519791 -0.478427E-07  0.194E-03    4.36      14.3  T
   7    -20.7519791 -0.478824E-08  0.823E-04    4.36      33.7  T
   8    -20.7519791 -0.910578E-09  0.321E-04    4.36      86.3  T
     SCC iter.                  ...        0 min,  0.004 sec
     gradient                   ...        0 min,  0.001 sec
 * total energy  :   -20.5335430 Eh     change       -0.2673952E-02 Eh
   gradient norm :     0.0246131 Eh/a0  converged?    E=F G=F D=F
   step length   :     0.2886697 a0

........................................................................
.............................. CYCLE    5 ..............................
........................................................................

 iter      E             dE          RMSdq      gap      omega  full diag
   1    -20.7565584 -0.207566E+02  0.323E-01    4.19       0.0  T
   2    -20.7566747 -0.116368E-03  0.178E-01    4.15       1.0  T
   3    -20.7566801 -0.536766E-05  0.601E-02    4.17       1.0  T
   4    -20.7566895 -0.941056E-05  0.148E-02    4.16       1.9  T
   5    -20.7566899 -0.410916E-06  0.842E-03    4.16       3.3  T
   6    -20.7566902 -0.313531E-06  0.158E-03    4.16      17.6  T
   7    -20.7566902 -0.181030E-08  0.588E-04    4.16      47.1  T
   8    -20.7566902 -0.211951E-08  0.233E-04    4.16     118.9  T
     SCC iter.                  ...        0 min,  0.004 sec
     gradient                   ...        0 min,  0.002 sec
 * total energy  :   -20.5356228 Eh     change       -0.2079814E-02 Eh
   gradient norm :     0.0344986 Eh/a0  converged?    E=F G=F D=F
   step length   :     0.4581657 a0

........................................................................
.............................. CYCLE    6 ..............................
........................................................................

 iter      E             dE          RMSdq      gap      omega  full diag
   1    -20.7648008 -0.207648E+02  0.155E-01    4.16       0.0  T
   2    -20.7648247 -0.238379E-04  0.821E-02    4.12       1.0  T
   3    -20.7648203  0.437686E-05  0.542E-02    4.14       1.0  T
   4    -20.7648345 -0.141946E-04  0.702E-03    4.13       4.0  T
   5    -20.7648348 -0.280973E-06  0.297E-03    4.13       9.3  T
   6    -20.7648348 -0.573618E-08  0.116E-03    4.13      23.9  T
   7    -20.7648348 -0.513273E-08  0.288E-04    4.13      96.2  T
   8    -20.7648348 -0.223821E-09  0.109E-04    4.13     254.0  T
     SCC iter.                  ...        0 min,  0.023 sec
     gradient                   ...        0 min,  0.001 sec
 * total energy  :   -20.5367611 Eh     change       -0.1138319E-02 Eh
   gradient norm :     0.0197887 Eh/a0  converged?    E=F G=F D=F
   step length   :     0.1642722 a0

........................................................................
.............................. CYCLE    7 ..............................
........................................................................

 iter      E             dE          RMSdq      gap      omega  full diag
   1    -20.7646134 -0.207646E+02  0.199E-01    4.02       0.0  T
   2    -20.7646327 -0.193101E-04  0.114E-01    4.02       1.0  T
   3    -20.7646296  0.306620E-05  0.311E-02    4.01       1.0  T
   4    -20.7646369 -0.725183E-05  0.700E-03    4.01       4.0  T
   5    -20.7646370 -0.103984E-06  0.376E-03    4.01       7.4  T
   6    -20.7646370 -0.258482E-07  0.106E-03    4.02      26.0  T
   7    -20.7646370 -0.547515E-08  0.343E-04    4.02      81.0  T
   8    -20.7646370 -0.248363E-09  0.167E-04    4.02     166.3  T
     SCC iter.                  ...        0 min,  0.011 sec
     gradient                   ...        0 min,  0.003 sec
 * total energy  :   -20.5376125 Eh     change       -0.8513461E-03 Eh
   gradient norm :     0.0180415 Eh/a0  converged?    E=F G=F D=F
   step length   :     0.2974916 a0

........................................................................
.............................. CYCLE    8 ..............................
........................................................................

 iter      E             dE          RMSdq      gap      omega  full diag
   1    -20.7677204 -0.207677E+02  0.176E-01    3.96       0.0  T
   2    -20.7677363 -0.158798E-04  0.988E-02    3.96       1.0  T
   3    -20.7677294  0.690950E-05  0.487E-02    3.96       1.0  T
   4    -20.7677432 -0.137786E-04  0.551E-03    3.96       5.0  T
   5    -20.7677432 -0.377572E-07  0.290E-03    3.96       9.6  T
   6    -20.7677432 -0.803162E-08  0.541E-04    3.96      51.2  T
   7    -20.7677432 -0.895255E-09  0.287E-04    3.96      96.5  T
     SCC iter.                  ...        0 min,  0.017 sec
     gradient                   ...        0 min,  0.002 sec
 * total energy  :   -20.5384536 Eh     change       -0.8410980E-03 Eh
   gradient norm :     0.0180027 Eh/a0  converged?    E=F G=F D=F
   step length   :     0.2693754 a0

........................................................................
.............................. CYCLE    9 ..............................
........................................................................

 iter      E             dE          RMSdq      gap      omega  full diag
   1    -20.7653529 -0.207654E+02  0.199E-01    3.89       0.0  T
   2    -20.7654051 -0.521897E-04  0.117E-01    3.92       1.0  T
   3    -20.7654037  0.141101E-05  0.455E-02    3.90       1.0  T
   4    -20.7654118 -0.811025E-05  0.971E-03    3.91       2.9  T
   5    -20.7654124 -0.550605E-06  0.414E-03    3.91       6.7  T
   6    -20.7654124 -0.270843E-07  0.192E-03    3.91      14.5  T
   7    -20.7654124 -0.817995E-08  0.433E-04    3.91      64.1  T
   8    -20.7654124 -0.364679E-09  0.238E-04    3.91     116.7  T
     SCC iter.                  ...        0 min,  0.009 sec
     gradient                   ...        0 min,  0.009 sec
 * total energy  :   -20.5391430 Eh     change       -0.6894536E-03 Eh
   gradient norm :     0.0227441 Eh/a0  converged?    E=F G=F D=F
   step length   :     0.2956181 a0

........................................................................
.............................. CYCLE   10 ..............................
........................................................................

 iter      E             dE          RMSdq      gap      omega  full diag
   1    -20.7719384 -0.207719E+02  0.143E-01    4.04       0.0  T
   2    -20.7719662 -0.278121E-04  0.820E-02    4.03       1.0  T
   3    -20.7719683 -0.217004E-05  0.492E-02    4.04       1.0  T
   4    -20.7719777 -0.934511E-05  0.765E-03    4.03       3.6  T
   5    -20.7719778 -0.871629E-07  0.424E-03    4.03       6.5  T
   6    -20.7719778 -0.231285E-07  0.113E-03    4.03      24.5  T
   7    -20.7719778 -0.454239E-08  0.464E-04    4.03      59.8  T
   8    -20.7719778 -0.266507E-09  0.189E-04    4.03     146.7  T
     SCC iter.                  ...        0 min,  0.019 sec
     gradient                   ...        0 min,  0.006 sec
 * total energy  :   -20.5396446 Eh     change       -0.5015656E-03 Eh
   gradient norm :     0.0158950 Eh/a0  converged?    E=F G=F D=F
   step length   :     0.2182196 a0

........................................................................
.............................. CYCLE   11 ..............................
........................................................................

 iter      E             dE          RMSdq      gap      omega  full diag
   1    -20.7670984 -0.207671E+02  0.206E-01    4.01       0.0  T
   2    -20.7671281 -0.296863E-04  0.117E-01    4.02       1.0  T
   3    -20.7671237  0.444843E-05  0.442E-02    4.02       1.0  T
   4    -20.7671354 -0.117044E-04  0.891E-03    4.02       3.1  T
   5    -20.7671356 -0.224560E-06  0.412E-03    4.02       6.7  T
   6    -20.7671356 -0.891661E-08  0.163E-03    4.02      17.0  T
   7    -20.7671356 -0.118670E-07  0.388E-04    4.02      71.4  T
   8    -20.7671356 -0.354277E-09  0.187E-04    4.02     148.1  T
     SCC iter.                  ...        0 min,  0.017 sec
     gradient                   ...        0 min,  0.005 sec
 * total energy  :   -20.5396590 Eh     change       -0.1443446E-04 Eh
   gradient norm :     0.0240316 Eh/a0  converged?    E=F G=F D=F
   step length   :     0.3148364 a0

........................................................................
.............................. CYCLE   12 ..............................
........................................................................

 iter      E             dE          RMSdq      gap      omega  full diag
   1    -20.7686801 -0.207687E+02  0.128E-01    3.99       0.0  T
   2    -20.7686923 -0.122222E-04  0.753E-02    4.00       1.0  T
   3    -20.7686895  0.283848E-05  0.306E-02    4.00       1.0  T
   4    -20.7686958 -0.628445E-05  0.653E-03    4.00       4.2  T
   5    -20.7686959 -0.155259E-06  0.311E-03    4.00       8.9  T
   6    -20.7686959 -0.373184E-08  0.625E-04    4.00      44.4  T
   7    -20.7686959 -0.196208E-08  0.283E-04    4.00      98.0  T
     SCC iter.                  ...        0 min,  0.027 sec
     gradient                   ...        0 min,  0.002 sec
 * total energy  :   -20.5401568 Eh     change       -0.4978233E-03 Eh
   gradient norm :     0.0109048 Eh/a0  converged?    E=F G=F D=F
   step length   :     0.1865574 a0

........................................................................
.............................. CYCLE   13 ..............................
........................................................................

 iter      E             dE          RMSdq      gap      omega  full diag
   1    -20.7693060 -0.207693E+02  0.361E-02    4.03       0.0  T
   2    -20.7693082 -0.211539E-05  0.215E-02    4.02       1.3  T
   3    -20.7693083 -0.994308E-07  0.115E-02    4.03       2.4  T
   4    -20.7693088 -0.509971E-06  0.204E-03    4.03      13.6  T
   5    -20.7693088 -0.133841E-07  0.110E-03    4.02      25.3  T
   6    -20.7693088 -0.257171E-08  0.444E-04    4.03      62.4  T
   7    -20.7693088 -0.324306E-09  0.191E-04    4.03     145.3  T
     SCC iter.                  ...        0 min,  0.003 sec
     gradient                   ...        0 min,  0.002 sec
 * total energy  :   -20.5402423 Eh     change       -0.8544366E-04 Eh
   gradient norm :     0.0049966 Eh/a0  converged?    E=F G=F D=F
   step length   :     0.0505561 a0

........................................................................
.............................. CYCLE   14 ..............................
........................................................................

 iter      E             dE          RMSdq      gap      omega  full diag
   1    -20.7692504 -0.207693E+02  0.454E-02    4.02       0.0  T
   2    -20.7692513 -0.888094E-06  0.259E-02    4.02       1.1  T
   3    -20.7692511  0.133394E-06  0.717E-03    4.02       3.9  T
   4    -20.7692514 -0.302660E-06  0.159E-03    4.02      17.4  T
   5    -20.7692515 -0.107016E-07  0.837E-04    4.02      33.2  T
   6    -20.7692515 -0.870141E-09  0.300E-04    4.02      92.5  T
     SCC iter.                  ...        0 min,  0.004 sec
     gradient                   ...        0 min,  0.002 sec
 * total energy  :   -20.5403097 Eh     change       -0.6737125E-04 Eh
   gradient norm :     0.0035666 Eh/a0  converged?    E=F G=F D=F
   step length   :     0.0695050 a0

........................................................................
.............................. CYCLE   15 ..............................
........................................................................

 iter      E             dE          RMSdq      gap      omega  full diag
   1    -20.7690756 -0.207691E+02  0.498E-02    4.02       0.0  T
   2    -20.7690762 -0.605213E-06  0.289E-02    4.02       1.0  T
   3    -20.7690760  0.259303E-06  0.687E-03    4.02       4.0  T
   4    -20.7690764 -0.441637E-06  0.164E-03    4.02      16.9  T
   5    -20.7690764 -0.530208E-08  0.790E-04    4.02      35.1  T
   6    -20.7690764 -0.853408E-09  0.283E-04    4.02      97.9  T
     SCC iter.                  ...        0 min,  0.002 sec
     gradient                   ...        0 min,  0.002 sec
 * total energy  :   -20.5403516 Eh     change       -0.4197115E-04 Eh
   gradient norm :     0.0031337 Eh/a0  converged?    E=F G=F D=F
   step length   :     0.0763564 a0

........................................................................
.............................. CYCLE   16 ..............................
........................................................................

 iter      E             dE          RMSdq      gap      omega  full diag
   1    -20.7698137 -0.207698E+02  0.360E-02    4.02       0.0  T
   2    -20.7698144 -0.710909E-06  0.212E-02    4.02       1.3  T
   3    -20.7698140  0.406679E-06  0.966E-03    4.02       2.9  T
   4    -20.7698148 -0.720726E-06  0.137E-03    4.02      20.2  T
   5    -20.7698148 -0.210894E-08  0.703E-04    4.02      39.5  T
   6    -20.7698148 -0.993637E-09  0.234E-04    4.02     118.3  T
     SCC iter.                  ...        0 min,  0.003 sec
     gradient                   ...        0 min,  0.002 sec
 * total energy  :   -20.5403794 Eh     change       -0.2774972E-04 Eh
   gradient norm :     0.0028827 Eh/a0  converged?    E=F G=F D=F
   step length   :     0.0565707 a0

........................................................................
.............................. CYCLE   17 ..............................
........................................................................

 iter      E             dE          RMSdq      gap      omega  full diag
   1    -20.7694178 -0.207694E+02  0.407E-02    4.01       0.0  T
   2    -20.7694194 -0.159321E-05  0.241E-02    4.02       1.2  T
   3    -20.7694190  0.359243E-06  0.114E-02    4.01       2.4  T
   4    -20.7694199 -0.827955E-06  0.162E-03    4.02      17.2  T
   5    -20.7694199 -0.148446E-07  0.764E-04    4.02      36.3  T
   6    -20.7694199 -0.925755E-09  0.274E-04    4.02     101.3  T
     SCC iter.                  ...        0 min,  0.004 sec
     gradient                   ...        0 min,  0.003 sec
 * total energy  :   -20.5403972 Eh     change       -0.1783984E-04 Eh
   gradient norm :     0.0017236 Eh/a0  converged?    E=F G=F D=F
   step length   :     0.0648423 a0

........................................................................
.............................. CYCLE   18 ..............................
........................................................................

 iter      E             dE          RMSdq      gap      omega  full diag
   1    -20.7702028 -0.207702E+02  0.234E-02    4.02       0.0  T
   2    -20.7702038 -0.909684E-06  0.141E-02    4.03       2.0  T
   3    -20.7702040 -0.244995E-06  0.824E-03    4.02       3.4  T
   4    -20.7702042 -0.214700E-06  0.901E-04    4.02      30.8  T
   5    -20.7702042 -0.282743E-08  0.500E-04    4.02      55.5  T
     SCC iter.                  ...        0 min,  0.010 sec
     gradient                   ...        0 min,  0.003 sec
 * total energy  :   -20.5404080 Eh     change       -0.1072683E-04 Eh
   gradient norm :     0.0019422 Eh/a0  converged?    E=F G=F D=F
   step length   :     0.0438643 a0

........................................................................
.............................. CYCLE   19 ..............................
........................................................................

 iter      E             dE          RMSdq      gap      omega  full diag
   1    -20.7696232 -0.207696E+02  0.147E-02    4.02       0.0  T
   2    -20.7696235 -0.265616E-06  0.813E-03    4.02       3.4  T
   3    -20.7696235  0.139501E-07  0.453E-03    4.02       6.1  T
   4    -20.7696236 -0.911010E-07  0.560E-04    4.02      49.6  T
   5    -20.7696236 -0.214689E-08  0.220E-04    4.02     126.0  T
     SCC iter.                  ...        0 min,  0.002 sec
     gradient                   ...        0 min,  0.002 sec
 * total energy  :   -20.5404157 Eh     change       -0.7774570E-05 Eh
   gradient norm :     0.0011080 Eh/a0  converged?    E=F G=F D=F
   step length   :     0.0278441 a0

........................................................................
.............................. CYCLE   20 ..............................
........................................................................

 iter      E             dE          RMSdq      gap      omega  full diag
   1    -20.7695382 -0.207695E+02  0.162E-02    4.03       0.0  T
   2    -20.7695383 -0.949043E-07  0.922E-03    4.03       3.0  T
   3    -20.7695382  0.743666E-07  0.413E-03    4.03       6.7  T
   4    -20.7695383 -0.117122E-06  0.434E-04    4.03      63.9  T
   5    -20.7695383 -0.394593E-09  0.231E-04    4.03     119.8  T
     SCC iter.                  ...        0 min,  0.002 sec
     gradient                   ...        0 min,  0.002 sec
 * total energy  :   -20.5404197 Eh     change       -0.4006486E-05 Eh
   gradient norm :     0.0011553 Eh/a0  converged?    E=F G=F D=F
   step length   :     0.0315441 a0
 * RMSD in coord.:     0.7400705 a0     energy gain  -0.3617041E-01 Eh
 * calculating model hessian...
Using Lindh-Hessian (1995)
 Shifting diagonal of input Hessian by    1.0000000000000000E-002
 Lowest  eigenvalues of input Hessian
    0.000000    0.000000    0.000000    0.000000    0.000000    0.000000
    0.014637    0.017231    0.018841    0.022544    0.027410    0.031961
    0.043487    0.057786    0.063146    0.075097    0.078885    0.091610
 Highest eigenvalues
    1.257500    1.385323    1.598514    1.707886    1.838718    2.567662


........................................................................
.............................. CYCLE   21 ..............................
........................................................................

 iter      E             dE          RMSdq      gap      omega  full diag
   1    -20.7696023 -0.207696E+02  0.130E-02    4.03       0.0  T
   2    -20.7696025 -0.131098E-06  0.744E-03    4.03       3.7  T
   3    -20.7696024  0.316254E-07  0.416E-03    4.03       6.7  T
   4    -20.7696025 -0.960721E-07  0.349E-04    4.03      79.5  T
   5    -20.7696025 -0.521386E-09  0.178E-04    4.03     155.5  T
     SCC iter.                  ...        0 min,  0.002 sec
     gradient                   ...        0 min,  0.002 sec
 * total energy  :   -20.5404234 Eh     change       -0.3688604E-05 Eh
   gradient norm :     0.0003420 Eh/a0  converged?    E=F G=T D=F
   step length   :     0.0161849 a0

........................................................................
.............................. CYCLE   22 ..............................
........................................................................

 iter      E             dE          RMSdq      gap      omega  full diag
   1    -20.7695698 -0.207696E+02  0.211E-02    4.03       0.0  T
   2    -20.7695701 -0.223445E-06  0.123E-02    4.03       2.3  T
   3    -20.7695699  0.151081E-06  0.581E-03    4.03       4.8  T
   4    -20.7695702 -0.256823E-06  0.576E-04    4.03      48.2  T
   5    -20.7695702 -0.886878E-09  0.318E-04    4.03      87.2  T
     SCC iter.                  ...        0 min,  0.003 sec
     gradient                   ...        0 min,  0.002 sec
 * total energy  :   -20.5404269 Eh     change       -0.3447928E-05 Eh
   gradient norm :     0.0007328 Eh/a0  converged?    E=F G=T D=F
   step length   :     0.0295815 a0

........................................................................
.............................. CYCLE   23 ..............................
........................................................................

 iter      E             dE          RMSdq      gap      omega  full diag
   1    -20.7695403 -0.207695E+02  0.425E-02    4.03       0.0  T
   2    -20.7695409 -0.566708E-06  0.248E-02    4.02       1.1  T
   3    -20.7695403  0.601891E-06  0.961E-03    4.03       2.9  T
   4    -20.7695411 -0.849034E-06  0.104E-03    4.02      26.6  T
   5    -20.7695411 -0.266187E-08  0.588E-04    4.02      47.2  T
   6    -20.7695411 -0.569983E-09  0.201E-04    4.02     137.9  T
     SCC iter.                  ...        0 min,  0.003 sec
     gradient                   ...        0 min,  0.001 sec
 * total energy  :   -20.5404314 Eh     change       -0.4511466E-05 Eh
   gradient norm :     0.0009011 Eh/a0  converged?    E=F G=F D=F
   step length   :     0.0592180 a0

........................................................................
.............................. CYCLE   24 ..............................
........................................................................

 iter      E             dE          RMSdq      gap      omega  full diag
   1    -20.7695232 -0.207695E+02  0.448E-02    4.02       0.0  T
   2    -20.7695235 -0.295033E-06  0.261E-02    4.02       1.1  T
   3    -20.7695231  0.341217E-06  0.651E-03    4.02       4.3  T
   4    -20.7695236 -0.462793E-06  0.101E-03    4.02      27.6  T
   5    -20.7695236 -0.164363E-08  0.589E-04    4.02      47.1  T
   6    -20.7695236 -0.511495E-09  0.200E-04    4.02     138.4  T
     SCC iter.                  ...        0 min,  0.003 sec
     gradient                   ...        0 min,  0.003 sec
 * total energy  :   -20.5404350 Eh     change       -0.3666070E-05 Eh
   gradient norm :     0.0008178 Eh/a0  converged?    E=F G=F D=F
   step length   :     0.0639186 a0

........................................................................
.............................. CYCLE   25 ..............................
........................................................................

 iter      E             dE          RMSdq      gap      omega  full diag
   1    -20.7694716 -0.207695E+02  0.672E-02    4.02       0.0  T
   2    -20.7694719 -0.287676E-06  0.394E-02    4.02       1.0  T
   3    -20.7694719  0.288690E-07  0.349E-03    4.02       7.9  T
   4    -20.7694720 -0.111806E-06  0.129E-03    4.02      21.5  T
   5    -20.7694720 -0.511933E-08  0.715E-04    4.02      38.8  T
   6    -20.7694720 -0.529951E-09  0.223E-04    4.02     124.6  T
     SCC iter.                  ...        0 min,  0.003 sec
     gradient                   ...        0 min,  0.002 sec
 * total energy  :   -20.5404379 Eh     change       -0.2807971E-05 Eh
   gradient norm :     0.0011692 Eh/a0  converged?    E=F G=F D=F
   step length   :     0.0887098 a0

........................................................................
.............................. CYCLE   26 ..............................
........................................................................

 iter      E             dE          RMSdq      gap      omega  full diag
   1    -20.7697681 -0.207698E+02  0.194E-02    4.02       0.0  T
   2    -20.7697681 -0.706412E-07  0.112E-02    4.02       2.5  T
   3    -20.7697681  0.289840E-07  0.237E-03    4.02      11.7  T
   4    -20.7697682 -0.521078E-07  0.576E-04    4.02      48.1  T
   5    -20.7697682 -0.859675E-09  0.340E-04    4.02      81.6  T
     SCC iter.                  ...        0 min,  0.002 sec
     gradient                   ...        0 min,  0.002 sec
 * total energy  :   -20.5404411 Eh     change       -0.3295084E-05 Eh
   gradient norm :     0.0006724 Eh/a0  converged?    E=F G=T D=F
   step length   :     0.0284347 a0

........................................................................
.............................. CYCLE   27 ..............................
........................................................................

 iter      E             dE          RMSdq      gap      omega  full diag
   1    -20.7697326 -0.207697E+02  0.119E-02    4.02       0.0  T
   2    -20.7697327 -0.634091E-07  0.699E-03    4.02       4.0  T
   3    -20.7697326  0.502862E-07  0.304E-03    4.02       9.1  T
   4    -20.7697327 -0.781300E-07  0.337E-04    4.02      82.2  T
   5    -20.7697327 -0.320984E-09  0.185E-04    4.02     150.1  T
     SCC iter.                  ...        0 min,  0.002 sec
     gradient                   ...        0 min,  0.003 sec
 * total energy  :   -20.5404423 Eh     change       -0.1113025E-05 Eh
   gradient norm :     0.0003725 Eh/a0  converged?    E=F G=T D=F
   step length   :     0.0156895 a0

........................................................................
.............................. CYCLE   28 ..............................
........................................................................

 iter      E             dE          RMSdq      gap      omega  full diag
   1    -20.7697004 -0.207697E+02  0.141E-02    4.02       0.0  T
   2    -20.7697005 -0.460540E-07  0.830E-03    4.02       3.3  T
   3    -20.7697004  0.472413E-07  0.247E-03    4.02      11.2  T
   4    -20.7697005 -0.633140E-07  0.348E-04    4.02      79.7  T
   5    -20.7697005 -0.346429E-09  0.188E-04    4.02     147.9  T
     SCC iter.                  ...        0 min,  0.003 sec
     gradient                   ...        0 min,  0.002 sec
 * total energy  :   -20.5404428 Eh     change       -0.5062085E-06 Eh
   gradient norm :     0.0001861 Eh/a0  converged?    E=T G=T D=F
   step length   :     0.0193619 a0

   *** GEOMETRY OPTIMIZATION CONVERGED AFTER 28 CYCLES ***

------------------------------------------------------------------------
 total energy gain   :        -0.0361934 Eh      -22.7117 kcal/mol
 total RMSD          :         0.7841222 a0        0.4149 Å
 total power (kW/mol):        -3.3937810 (step) -229.4341 (real)
------------------------------------------------------------------------

 L-ANCopt (total)              0 d,  0 h,  0 min,  0.414 sec
 setup                          ...        0 min,  0.001 sec (  0.286%)
 model hessian                  ...        0 min,  0.006 sec (  1.406%)
 ANC generation                 ...        0 min,  0.005 sec (  1.220%)
 coordinate transformation      ...        0 min,  0.002 sec (  0.526%)
 Rational function              ...        0 min,  0.000 sec (  0.016%)
 singlepoint calculation        ...        0 min,  0.391 sec ( 94.488%)
 optimization log               ...        0 min,  0.003 sec (  0.708%)
 hessian update                 ...        0 min,  0.000 sec (  0.032%)

================
 final structure:
================
13
 xtb: 6.7.1 (edcfbbe)
C            0.87023521615262        0.05986469712729       -0.20670049162516
C            2.34241082745538       -0.11891281942945        0.04818357734817
N            2.96203655045113       -1.11351377510454       -0.66782445297033
C            3.01823259285757        1.41963387893845       -0.36289046342291
O            2.55493902582921        2.33588501996411        0.19838738319269
O            3.94258931666398        1.33480962116998       -1.23749527060839
H            0.34320789268293       -0.82007051036998        0.17008261599380
H            0.63775500031413        0.14650231367655       -1.26789771467901
H            0.49305854880781        0.94040225029019        0.30722731650077
H            2.61527462100730       -0.12320598053701        1.10951592254475
H            2.47635944836373       -1.53626703128700       -1.44807467666998
H            3.71942941172326       -1.64839599838278       -0.26755990624889
H            4.17084263547676        0.45230546506606       -1.58999989672361

 Bond Distances (Angstroems)
 ---------------------------
C1-C2=1.5047         C1-H7=1.0927         C1-H8=1.0898         C1-H9=1.0871         C2-C1=1.5047         C2-N3=1.3733         
C2-C4=1.7300         C2-H10=1.0959        N3-C2=1.3733         N3-H11=1.0116        N3-H12=1.0099        C4-C2=1.7300         
C4-O5=1.1701         C4-O6=1.2754         O5-C4=1.1701         O6-C4=1.2754         O6-H13=0.9773        H7-C1=1.0927         
H8-C1=1.0898         H9-C1=1.0871         H10-C2=1.0959        H11-N3=1.0116        H12-N3=1.0099        H13-O6=0.9773        
 C  H  Rav=1.0914 sigma=0.0033  Rmin=1.0871  Rmax=1.0959     4
 C  C  Rav=1.6174 sigma=0.1126  Rmin=1.5047  Rmax=1.7300     2
 N  H  Rav=1.0108 sigma=0.0009  Rmin=1.0099  Rmax=1.0116     2
 N  C  Rav=1.3733 sigma=0.0000  Rmin=1.3733  Rmax=1.3733     1
 O  H  Rav=0.9773 sigma=0.0000  Rmin=0.9773  Rmax=0.9773     1
 O  C  Rav=1.2227 sigma=0.0526  Rmin=1.1701  Rmax=1.2754     2

 selected bond angles (degree)
 --------------------
H7-C1-C2=108.53                H8-C1-C2=112.53                H8-C1-H7=107.27                H9-C1-C2=110.83                
H9-C1-H7=108.78                H9-C1-H8=108.78                N3-C2-C1=116.05                C4-C2-C1=103.67                
C4-C2-N3=110.12                H10-C2-C1=114.09               H10-C2-N3=112.94               H10-C2-C4= 97.84               
H11-N3-C2=119.22               H12-N3-C2=121.02               H12-N3-H11=116.38              O5-C4-C2=115.32                
O6-C4-C2=112.76                O6-C4-O5=131.91                H13-O6-C4=118.47               

 selected dihedral angles (degree)
 ---------------------------------
N3-C2-C1-H7= 67.54            N3-C2-C1-H8=308.99            N3-C2-C1-H9=186.94            C4-C2-C1-H7=188.40            
C4-C2-C1-H8= 69.84            C4-C2-C1-H9=307.79            H10-C2-C1-H7=293.61           H10-C2-C1-H8=175.06           
H10-C2-C1-H9= 53.01           H11-N3-C2-C1= 12.63           H11-N3-C2-C4=255.30           H11-N3-C2-H10=147.07          
H12-N3-C2-C1=214.11           H12-N3-C2-C4= 96.78           H12-N3-C2-H10=348.55          O5-C4-C2-C1= 55.28            
O5-C4-C2-N3=180.06            O5-C4-C2-H10=298.06           O6-C4-C2-C1=235.35            O6-C4-C2-N3=  0.13            
O6-C4-C2-H10=118.13           H13-O6-C4-C2=  0.66           H13-O6-C4-O5=180.74           
           -------------------------------------------------
          |                Final Singlepoint                |
           -------------------------------------------------

          ...................................................
          :                      SETUP                      :
          :.................................................:
          :  # basis functions                  31          :
          :  # atomic orbitals                  31          :
          :  # shells                           19          :
          :  # electrons                        35          :
          :  max. iterations                   250          :
          :  Hamiltonian                  GFN2-xTB          :
          :  restarted?                      false          :
          :  GBSA solvation                  false          :
          :  PC potential                    false          :
          :  electronic temp.          300.0000000     K    :
          :  accuracy                    1.0000000          :
          :  -> integral cutoff          0.2500000E+02      :
          :  -> integral neglect         0.1000000E-07      :
          :  -> SCF convergence          0.1000000E-05 Eh   :
          :  -> wf. convergence          0.1000000E-03 e    :
          :  Broyden damping             0.4000000          :
          :  net charge                          1          :
          :  unpaired electrons                  1          :
          ...................................................

 iter      E             dE          RMSdq      gap      omega  full diag
   1    -20.7697005 -0.207697E+02  0.695E-05    4.02       0.0  T
   2    -20.7697005 -0.427391E-11  0.445E-05    4.02     623.7  T
   3    -20.7697005 -0.525802E-12  0.166E-05    4.02    1666.8  T

   *** convergence criteria satisfied after 3 iterations ***

         #    Occupation            Energy/Eh            Energy/eV
      -------------------------------------------------------------
         1        2.0000           -0.9807009             -26.6862
       ...           ...                  ...                  ...
        12        2.0000           -0.7301172             -19.8675
        13        2.0000           -0.7088677             -19.2893
        14        2.0000           -0.6902101             -18.7816
        15        2.0000           -0.6823610             -18.5680
        16        2.0000           -0.6604784             -17.9725
        17        2.0000           -0.6539074             -17.7937
        18        1.0000           -0.5926364             -16.1265 (HOMO)
        19                         -0.4449210             -12.1069 (LUMO)
        20                         -0.2873601              -7.8195
        21                         -0.2018741              -5.4933
        22                         -0.1366401              -3.7182
        23                         -0.0962846              -2.6200
       ...                                ...                  ...
        31                          0.5467945              14.8790
      -------------------------------------------------------------
                  HL-Gap            0.1477154 Eh            4.0195 eV
             Fermi-level           -0.5710253 Eh          -15.5384 eV

 SCC (total)                   0 d,  0 h,  0 min,  0.007 sec
 SCC setup                      ...        0 min,  0.000 sec (  1.908%)
 Dispersion                     ...        0 min,  0.000 sec (  1.247%)
 classical contributions        ...        0 min,  0.000 sec (  0.557%)
 integral evaluation            ...        0 min,  0.000 sec (  6.667%)
 iterations                     ...        0 min,  0.002 sec ( 34.295%)
 molecular gradient             ...        0 min,  0.002 sec ( 25.968%)
 printout                       ...        0 min,  0.002 sec ( 29.053%)

         :::::::::::::::::::::::::::::::::::::::::::::::::::::
         ::                     SUMMARY                     ::
         :::::::::::::::::::::::::::::::::::::::::::::::::::::
         :: total energy             -20.540442769186 Eh    ::
         :: gradient norm              0.000186890048 Eh/a0 ::
         :: HOMO-LUMO gap              4.019539813558 eV    ::
         ::.................................................::
         :: SCC energy               -20.769690409161 Eh    ::
         :: -> isotropic ES            0.133321789706 Eh    ::
         :: -> anisotropic ES         -0.005439016996 Eh    ::
         :: -> anisotropic XC          0.007031046411 Eh    ::
         :: -> dispersion             -0.006036982881 Eh    ::
         :: repulsion energy           0.229247639975 Eh    ::
         :: add. restraining           0.000000000000 Eh    ::
         :: total charge               1.000000000000 e     ::
         :::::::::::::::::::::::::::::::::::::::::::::::::::::

           -------------------------------------------------
          |                Property Printout                |
           -------------------------------------------------

    * Orbital Energies and Occupations

         #    Occupation            Energy/Eh            Energy/eV
      -------------------------------------------------------------
         1        2.0000           -0.9807009             -26.6862
       ...           ...                  ...                  ...
         6        2.0000           -0.8283405             -22.5403
         7        2.0000           -0.8180815             -22.2611
         8        2.0000           -0.7921507             -21.5555
         9        2.0000           -0.7802042             -21.2304
        10        2.0000           -0.7682067             -20.9040
        11        2.0000           -0.7428872             -20.2150
        12        2.0000           -0.7301172             -19.8675
        13        2.0000           -0.7088677             -19.2893
        14        2.0000           -0.6902101             -18.7816
        15        2.0000           -0.6823610             -18.5680
        16        2.0000           -0.6604784             -17.9725
        17        2.0000           -0.6539074             -17.7937
        18        1.0000           -0.5926364             -16.1265 (HOMO)
        19                         -0.4449210             -12.1069 (LUMO)
        20                         -0.2873601              -7.8195
        21                         -0.2018741              -5.4933
        22                         -0.1366401              -3.7182
        23                         -0.0962846              -2.6200
        24                         -0.0888778              -2.4185
        25                         -0.0097751              -0.2660
        26                          0.0030297               0.0824
        27                          0.0361305               0.9832
        28                          0.0854592               2.3255
        29                          0.1140933               3.1046
       ...                                ...                  ...
        31                          0.5467945              14.8790
      -------------------------------------------------------------
                  HL-Gap            0.1477154 Eh            4.0195 eV
             Fermi-level           -0.5710253 Eh          -15.5384 eV

     #   Z          covCN         q      C6AA      α(0)
     1   6 C        3.755    -0.143    23.308     6.884
     2   6 C        3.717     0.033    20.138     6.411
     3   7 N        2.634    -0.207    25.519     7.503
     4   6 C        2.619     0.390    20.421     7.391
     5   8 O        0.856    -0.164    17.483     5.606
     6   8 O        1.659    -0.243    18.033     5.733
     7   1 H        0.924     0.132     1.516     1.926
     8   1 H        0.925     0.105     1.736     2.061
     9   1 H        0.925     0.117     1.638     2.002
    10   1 H        0.924     0.136     1.490     1.909
    11   1 H        0.860     0.232     0.958     1.534
    12   1 H        0.860     0.227     0.978     1.549
    13   1 H        0.803     0.384     0.515     1.128

 Mol. C6AA /au·bohr⁶  :       1221.921826
 Mol. C8AA /au·bohr⁸  :      26401.472484
 Mol. α(0) /au        :         51.634105


Wiberg/Mayer (AO) data.
largest (>0.10) Wiberg bond orders for each atom

 ---------------------------------------------------------------------------
     #   Z sym  total        # sym  WBO       # sym  WBO       # sym  WBO
 ---------------------------------------------------------------------------
     1   6 C    3.964 --     2 C    1.024     9 H    0.969     8 H    0.955
                             7 H    0.917
     2   6 C    3.925 --     3 N    1.278     1 C    1.024    10 H    0.911
                             4 C    0.586
     3   7 N    3.401 --     2 C    1.278    12 H    0.930    11 H    0.926
     4   6 C    3.907 --     5 O    1.936     6 O    1.302     2 C    0.586
     5   8 O    2.375 --     4 C    1.936     6 O    0.197
     6   8 O    2.385 --     4 C    1.302    13 H    0.807     5 O    0.197
     7   1 H    0.981 --     1 C    0.917
     8   1 H    0.989 --     1 C    0.955
     9   1 H    0.986 --     1 C    0.969
    10   1 H    0.981 --     2 C    0.911
    11   1 H    0.946 --     3 N    0.926
    12   1 H    0.948 --     3 N    0.930
    13   1 H    0.853 --     6 O    0.807
 ---------------------------------------------------------------------------

Topologies differ in total number of bonds
Writing topology from bond orders to xtbtopo.mol

molecular dipole:
                 x           y           z       tot (Debye)
 q only:        5.077      -0.927      -1.200
   full:        5.199      -1.378      -1.266      14.044
molecular quadrupole (traceless):
                xx          xy          yy          xz          yz          zz
 q only:       29.295      -7.931     -16.673     -11.539       1.541     -12.621
  q+dip:       30.082     -11.649     -18.290     -10.901       1.855     -11.793
   full:       30.461     -11.490     -18.500     -10.725       1.573     -11.962

           -------------------------------------------------
          |                Geometry Summary                 |
           -------------------------------------------------

      molecular mass/u    :       89.0933060
   center of mass at/Å    :        2.6360357       0.6382593      -0.3956755
  moments of inertia/u·Å² :        0.1027567E+03   0.1530281E+03   0.2285758E+03
rotational constants/cm⁻¹ :        0.1640538E+00   0.1101604E+00   0.7375073E-01

 * 11 selected distances

     #   Z          #   Z                                           value/Å
     1   6 C        2   6 C                                       1.5047354 (max)
     2   6 C        3   7 N                                       1.3732571
     4   6 C        5   8 O                                       1.1701240
     4   6 C        6   8 O                                       1.2753683
     1   6 C        7   1 H                                       1.0927074
     1   6 C        8   1 H                                       1.0898132
     1   6 C        9   1 H                                       1.0870743
     2   6 C       10   1 H                                       1.0958557
     3   7 N       11   1 H                                       1.0116290
     3   7 N       12   1 H                                       1.0099281
     6   8 O       13   1 H                                       0.9773294 (min)

 * 6 distinct bonds (by element types)

   Z      Z             #   av. dist./Å        max./Å        min./Å
   1 H    6 C           4     1.0913627     1.0958557     1.0870743
   6 C    6 C           1     1.5047354     1.5047354     1.5047354
   1 H    7 N           2     1.0107785     1.0116290     1.0099281
   6 C    7 N           1     1.3732571     1.3732571     1.3732571
   1 H    8 O           1     0.9773294     0.9773294     0.9773294
   6 C    8 O           2     1.2227462     1.2753683     1.1701240


optimized geometry written to: xtbopt.xyz


           -------------------------------------------------
          | TOTAL ENERGY              -20.540442769186 Eh   |
          | GRADIENT NORM               0.000186890048 Eh/α |
          | HOMO-LUMO GAP               4.019539813558 eV   |
           -------------------------------------------------

------------------------------------------------------------------------
 * finished run on 2026/09/29 at 15:12:09.041     
------------------------------------------------------------------------
 total:
 * wall-time:     0 d,  0 h,  0 min,  0.481 sec
 *  cpu-time:     0 d,  0 h,  0 min,  0.210 sec
 * ratio c/w:     0.437 speedup
 SCF:
 * wall-time:     0 d,  0 h,  0 min,  0.026 sec
 *  cpu-time:     0 d,  0 h,  0 min,  0.009 sec
 * ratio c/w:     0.356 speedup
 ANC optimizer:
 * wall-time:     0 d,  0 h,  0 min,  0.425 sec
 *  cpu-time:     0 d,  0 h,  0 min,  0.192 sec
 * ratio c/w:     0.453 speedup

