13
 energy: -20.540442769186 gnorm: 0.000186890048 xtb: 6.7.1 (edcfbbe)
C            0.87023521615262        0.05986469712729       -0.20670049162516
C            2.34241082745538       -0.11891281942945        0.04818357734817
N            2.96203655045113       -1.11351377510454       -0.66782445297033
C            3.01823259285757        1.41963387893845       -0.36289046342291
O            2.55493902582921        2.33588501996411        0.19838738319269
O            3.94258931666398        1.33480962116998       -1.23749527060839
H            0.34320789268293       -0.82007051036998        0.17008261599380
H            0.63775500031413        0.14650231367655       -1.26789771467901
H            0.49305854880781        0.94040225029019        0.30722731650077
H            2.61527462100730       -0.12320598053701        1.10951592254475
H            2.47635944836373       -1.53626703128700       -1.44807467666998
H            3.71942941172326       -1.64839599838278       -0.26755990624889
H            4.17084263547676        0.45230546506606       -1.58999989672361
