      -----------------------------------------------------------      
     |                   =====================                   |     
     |                           x T B                           |     
     |                   =====================                   |     
     |                         S. Grimme                         |     
     |          Mulliken Center for Theoretical Chemistry        |     
     |                    University of Bonn                     |     
      -----------------------------------------------------------      

   * xtb version 6.7.1 (edcfbbe) compiled by 'runner@Mac-1732539442253.local' on 2024-11-25

   xtb is free software: you can redistribute it and/or modify it under
   the terms of the GNU Lesser General Public License as published by
   the Free Software Foundation, either version 3 of the License, or
   (at your option) any later version.
   
   xtb is distributed in the hope that it will be useful,
   but WITHOUT ANY WARRANTY; without even the implied warranty of
   MERCHANTABILITY or FITNESS FOR A PARTICULAR PURPOSE.  See the
   GNU Lesser General Public License for more details.
   
   Cite this work as:
   * C. Bannwarth, E. Caldeweyher, S. Ehlert, A. Hansen, P. Pracht,
     J. Seibert, S. Spicher, S. Grimme, WIREs Comput. Mol. Sci., 2020, 11,
     e01493. DOI: 10.1002/wcms.1493
   
   for GFN2-xTB:
   * C. Bannwarth, S. Ehlert and S. Grimme., J. Chem. Theory Comput., 2019,
     15, 1652-1671. DOI: 10.1021/acs.jctc.8b01176
   for GFN1-xTB:
   * S. Grimme, C. Bannwarth, P. Shushkov, J. Chem. Theory Comput., 2017,
     13, 1989-2009. DOI: 10.1021/acs.jctc.7b00118
   for GFN0-xTB:
   * P. Pracht, E. Caldeweyher, S. Ehlert, S. Grimme, ChemRxiv, 2019, preprint.
     DOI: 10.26434/chemrxiv.8326202.v1
   for GFN-FF:
   * S. Spicher and S. Grimme, Angew. Chem. Int. Ed., 2020, 59, 15665-15673.
     DOI: 10.1002/anie.202004239
   
   for ALPB and GBSA implicit solvation:
   * S. Ehlert, M. Stahn, S. Spicher, S. Grimme, J. Chem. Theory Comput.,
     2021, 17, 4250-4261. DOI: 10.1021/acs.jctc.1c00471
   
   for ddCOSMO and CPCM-X implicit solvation:
   * M. Stahn, S. Ehlert, S. Grimme, J. Phys. Chem. A,
     2023, XX, XXXX-XXXX. DOI: 10.1021/acs.jpca.3c04382
   
   for DFT-D4:
   * E. Caldeweyher, C. Bannwarth and S. Grimme, J. Chem. Phys., 2017,
     147, 034112. DOI: 10.1063/1.4993215
   * E. Caldeweyher, S. Ehlert, A. Hansen, H. Neugebauer, S. Spicher,
     C. Bannwarth and S. Grimme, J. Chem. Phys., 2019, 150, 154122.
     DOI: 10.1063/1.5090222
   * E. Caldeweyher, J.-M. Mewes, S. Ehlert and S. Grimme, Phys. Chem. Chem. Phys.
     2020, 22, 8499-8512. DOI: 10.1039/D0CP00502A
   
   for sTDA-xTB:
   * S. Grimme and C. Bannwarth, J. Chem. Phys., 2016, 145, 054103.
     DOI: 10.1063/1.4959605
   
   in the mass-spec context:
   * V. Asgeirsson, C. Bauer and S. Grimme, Chem. Sci., 2017, 8, 4879.
     DOI: 10.1039/c7sc00601b
   * J. Koopman and S. Grimme, ACS Omega 2019, 4, 12, 15120-15133.
     DOI: 10.1021/acsomega.9b02011
   
   for metadynamics refer to:
   * S. Grimme, J. Chem. Theory Comput., 2019, 155, 2847-2862
     DOI: 10.1021/acs.jctc.9b00143
   
   for SPH calculations refer to:
   * S. Spicher and S. Grimme, J. Chem. Theory Comput., 2021, 17, 1701-1714
     DOI: 10.1021/acs.jctc.0c01306
   
   for ONIOM refer to:
   * C. Plett, A. Katbashev, S. Ehlert, S. Grimme, M. Bursch,
     Phys. Chem. Chem. Phys., 2023, 25, 17860-17868. DOI: 10.1039/D3CP02178E
   
   for DIPRO refer to:
   * J. Kohn, N. Gildemeister, S. Grimme, D. Fazzi, A. Hansen,
     J. Chem. Phys., 2023, just accepted.
   
   for PTB refer to:
   * S. Grimme, M. Mueller, A. Hansen, J. Chem. Phys., 2023, 158, 124111.
     DOI: 10.1063/5.0137838
   
   with help from (in alphabetical order)
   P. Atkinson, C. Bannwarth, F. Bohle, G. Brandenburg, E. Caldeweyher
   M. Checinski, S. Dohm, S. Ehlert, S. Ehrlich, I. Gerasimov, C. Hölzer
   A. Katbashev, J. Kohn, J. Koopman, C. Lavigne, S. Lehtola, F. März, M. Müller,
   F. Musil, H. Neugebauer, J. Pisarek, C. Plett, P. Pracht, F. Pultar,
   J. Seibert, P. Shushkov, S. Spicher, M. Stahn, M. Steiner, T. Strunk,
   J. Stückrath, T. Rose, and J. Unsleber
   
 * started run on 2026/09/29 at 15:12:07.696     
   ID    Z sym.   atoms
    1    7 N      1
    2    6 C      2-8
    3    1 H      9-17

           -------------------------------------------------
          |                Calculation Setup                |
           -------------------------------------------------

          program call               : xtb in.xyz --opt tight --input xcontrol --chrg 1 --uhf 1
          coordinate file            : in.xyz
          omp threads                :                     4


           -------------------------------------------------
          |                 G F N 2 - x T B                 |
           -------------------------------------------------

        Reference                      10.1021/acs.jctc.8b01176
      * Hamiltonian:
        H0-scaling (s, p, d)           1.850000    2.230000    2.230000
        zeta-weighting                 0.500000
      * Dispersion:
        s8                             2.700000
        a1                             0.520000
        a2                             5.000000
        s9                             5.000000
      * Repulsion:
        kExp                           1.500000    1.000000
        rExp                           1.000000
      * Coulomb:
        alpha                          2.000000
        third order                    shell-resolved
        anisotropic                    true
        a3                             3.000000
        a5                             4.000000
        cn-shift                       1.200000
        cn-exp                         4.000000
        max-rad                        5.000000

q/qsh data taken from xtbrestart
CAMM data taken from xtbrestart

          ...................................................
          :                      SETUP                      :
          :.................................................:
          :  # basis functions                  41          :
          :  # atomic orbitals                  41          :
          :  # shells                           25          :
          :  # electrons                        41          :
          :  max. iterations                   250          :
          :  Hamiltonian                  GFN2-xTB          :
          :  restarted?                       true          :
          :  GBSA solvation                  false          :
          :  PC potential                    false          :
          :  electronic temp.          300.0000000     K    :
          :  accuracy                    1.0000000          :
          :  -> integral cutoff          0.2500000E+02      :
          :  -> integral neglect         0.1000000E-07      :
          :  -> SCF convergence          0.1000000E-05 Eh   :
          :  -> wf. convergence          0.1000000E-03 e    :
          :  Broyden damping             0.4000000          :
          :  net charge                          1          :
          :  unpaired electrons                  1          :
          ...................................................

 iter      E             dE          RMSdq      gap      omega  full diag
   1    -22.2814842 -0.222815E+02  0.257E+00    4.58       0.0  T
   2    -22.1995653  0.819189E-01  0.282E+00    2.52       1.0  T
   3    -22.3416474 -0.142082E+00  0.122E+00    4.58       1.0  T
   4    -22.2937368  0.479105E-01  0.160E+00    4.25       1.0  T
   5    -22.2941041 -0.367257E-03  0.157E+00    4.64       1.0  T
   6    -22.3496597 -0.555556E-01  0.552E-01    4.59       1.0  T
   7    -22.3485464  0.111336E-02  0.451E-01    4.57       1.0  T
   8    -22.3513029 -0.275650E-02  0.348E-01    4.59       1.0  T
   9    -22.3508942  0.408694E-03  0.322E-01    4.59       1.0  T
  10    -22.3506592  0.234956E-03  0.280E-01    4.62       1.0  T
  11    -22.3526768 -0.201758E-02  0.985E-02    4.61       1.0  T
  12    -22.3527912 -0.114399E-03  0.479E-02    4.60       1.0  T
  13    -22.3528427 -0.515191E-04  0.105E-02    4.60       2.3  T
  14    -22.3528363  0.638749E-05  0.181E-02    4.60       1.3  T
  15    -22.3528447 -0.836198E-05  0.479E-03    4.60       5.1  T
  16    -22.3528453 -0.619963E-06  0.137E-03    4.60      17.7  T
  17    -22.3528453 -0.472781E-07  0.487E-04    4.60      49.8  T
  18    -22.3528453  0.972351E-08  0.733E-04    4.60      33.1  T

   *** convergence criteria satisfied after 18 iterations ***

         #    Occupation            Energy/Eh            Energy/eV
      -------------------------------------------------------------
         1        2.0000           -0.8424385             -22.9239
       ...           ...                  ...                  ...
        15        2.0000           -0.6519099             -17.7394
        16        2.0000           -0.6460268             -17.5793
        17        2.0000           -0.6029082             -16.4060
        18        2.0000           -0.5986672             -16.2906
        19        1.9900           -0.5902806             -16.0624
        20        1.8628           -0.5876592             -15.9910
        21        1.1471           -0.5842423             -15.8980 (HOMO)
        22                         -0.4151221             -11.2960 (LUMO)
        23                         -0.4095211             -11.1436
        24                         -0.2869202              -7.8075
        25                         -0.1429074              -3.8887
        26                         -0.0973990              -2.6504
       ...                                ...                  ...
        41                          0.4482043              12.1963
      -------------------------------------------------------------
                  HL-Gap            0.1691202 Eh            4.6020 eV
             Fermi-level           -0.5427971 Eh          -14.7703 eV

 SCC (total)                   0 d,  0 h,  0 min,  0.020 sec
 SCC setup                      ...        0 min,  0.000 sec (  0.753%)
 Dispersion                     ...        0 min,  0.000 sec (  1.316%)
 classical contributions        ...        0 min,  0.000 sec (  0.826%)
 integral evaluation            ...        0 min,  0.001 sec (  5.823%)
 iterations                     ...        0 min,  0.013 sec ( 65.944%)
 molecular gradient             ...        0 min,  0.005 sec ( 24.044%)
 printout                       ...        0 min,  0.000 sec (  1.194%)

         :::::::::::::::::::::::::::::::::::::::::::::::::::::
         ::                     SUMMARY                     ::
         :::::::::::::::::::::::::::::::::::::::::::::::::::::
         :: total energy             -21.981163229310 Eh    ::
         :: gradient norm              0.045742457494 Eh/a0 ::
         :: HOMO-LUMO gap              4.601994552324 eV    ::
         ::.................................................::
         :: SCC energy               -22.352815145271 Eh    ::
         :: -> isotropic ES            0.087009018160 Eh    ::
         :: -> anisotropic ES         -0.013849398708 Eh    ::
         :: -> anisotropic XC          0.019748968463 Eh    ::
         :: -> dispersion             -0.011122544477 Eh    ::
         :: repulsion energy           0.371651915961 Eh    ::
         :: add. restraining           0.000000000000 Eh    ::
         :: total charge               1.000000000003 e     ::
         :::::::::::::::::::::::::::::::::::::::::::::::::::::

      ----------------------------------------------------------- 
     |                       L-ANC optimizer                     |
      ----------------------------------------------------------- 
          low memory version by Sebastian Ehlert

          ...................................................
          :                      SETUP                      :
          :.................................................:
          :   energy convergence        0.1000000E-05 Eh    :
          :   grad. convergence         0.8000000E-03 Eh/a0 :
          :   optimization log               true           :
          :   writing optlog all                1     steps :
          :   Hessian reset                    20     steps :
          :   maximium step len.        1.0000000     a0    :
          :   LBFGS images                     20           :
          ...................................................
 * calculating model hessian...
Using Lindh-Hessian (1995)
 Shifting diagonal of input Hessian by    1.0000000000000000E-002
 Lowest  eigenvalues of input Hessian
    0.000000    0.000000    0.000000    0.000000    0.000000    0.000000
    0.013253    0.013813    0.020626    0.022269    0.024045    0.031510
    0.033872    0.038518    0.052642    0.069919    0.073699    0.075744
 Highest eigenvalues
    1.419648    1.529624    1.567270    1.830552    1.929576    1.945862


........................................................................
.............................. CYCLE    1 ..............................
........................................................................

 iter      E             dE          RMSdq      gap      omega  full diag
   1    -22.3523880 -0.223524E+02  0.707E-01    4.44       0.0  T
   2    -22.2908897  0.614983E-01  0.163E+00    4.62       1.0  T
   3    -22.3508772 -0.599874E-01  0.804E-01    4.58       1.0  T
   4    -22.3617404 -0.108633E-01  0.404E-01    4.55       1.0  T
   5    -22.3647696 -0.302915E-02  0.201E-01    4.53       1.0  T
   6    -22.3649017 -0.132135E-03  0.116E-01    4.52       1.0  T
   7    -22.3645570  0.344752E-03  0.145E-01    4.53       1.0  T
   8    -22.3649823 -0.425352E-03  0.611E-02    4.53       1.0  T
   9    -22.3650510 -0.686397E-04  0.265E-02    4.53       1.0  T
  10    -22.3650508  0.164752E-06  0.212E-02    4.53       1.1  T
  11    -22.3650602 -0.936097E-05  0.263E-03    4.52       9.2  T
  12    -22.3650595  0.643402E-06  0.522E-03    4.52       4.6  T
  13    -22.3650602 -0.667327E-06  0.159E-03    4.52      15.2  T
  14    -22.3650602 -0.254000E-07  0.944E-04    4.52      25.7  T
  15    -22.3650602 -0.211767E-07  0.329E-04    4.52      73.8  T
     SCC iter.                  ...        0 min,  0.014 sec
     gradient                   ...        0 min,  0.006 sec
 * total energy  :   -21.9860410 Eh     change       -0.4877791E-02 Eh
   gradient norm :     0.0315529 Eh/a0  converged?    E=F G=F D=F
   step length   :     0.2556585 a0

........................................................................
.............................. CYCLE    2 ..............................
........................................................................

 iter      E             dE          RMSdq      gap      omega  full diag
   1    -22.3638746 -0.223639E+02  0.680E-01    4.25       0.0  T
   2    -22.3004052  0.634694E-01  0.165E+00    4.51       1.0  T
   3    -22.3720139 -0.716086E-01  0.370E-01    4.40       1.0  T
   4    -22.3745157 -0.250184E-02  0.130E-01    4.37       1.0  T
   5    -22.3739827  0.533024E-03  0.159E-01    4.35       1.0  T
   6    -22.3745799 -0.597185E-03  0.298E-02    4.37       1.0  T
   7    -22.3745513  0.285438E-04  0.416E-02    4.38       1.0  T
   8    -22.3745861 -0.347881E-04  0.163E-02    4.37       1.5  T
   9    -22.3745918 -0.569704E-05  0.167E-03    4.37      14.5  T
  10    -22.3745917  0.112197E-06  0.275E-03    4.37       8.8  T
  11    -22.3745919 -0.147294E-06  0.874E-04    4.37      27.7  T
  12    -22.3745919 -0.255802E-08  0.848E-04    4.37      28.6  T
     SCC iter.                  ...        0 min,  0.017 sec
     gradient                   ...        0 min,  0.011 sec
 * total energy  :   -21.9889970 Eh     change       -0.2955967E-02 Eh
   gradient norm :     0.0342246 Eh/a0  converged?    E=F G=F D=F
   step length   :     0.4627687 a0

........................................................................
.............................. CYCLE    3 ..............................
........................................................................

 iter      E             dE          RMSdq      gap      omega  full diag
   1    -22.3785064 -0.223785E+02  0.936E-02    4.35       0.0  T
   2    -22.3746672  0.383917E-02  0.393E-01    4.41       1.0  T
   3    -22.3785929 -0.392565E-02  0.661E-02    4.37       1.0  T
   4    -22.3786016 -0.876765E-05  0.488E-02    4.37       1.0  T
   5    -22.3786459 -0.442470E-04  0.454E-03    4.36       5.3  T
   6    -22.3786460 -0.166282E-06  0.249E-03    4.36       9.7  T
   7    -22.3786461 -0.503017E-07  0.144E-03    4.36      16.8  T
   8    -22.3786461 -0.241534E-07  0.595E-04    4.36      40.8  T
   9    -22.3786461 -0.300826E-08  0.317E-04    4.36      76.6  T
     SCC iter.                  ...        0 min,  0.009 sec
     gradient                   ...        0 min,  0.002 sec
 * total energy  :   -21.9900457 Eh     change       -0.1048709E-02 Eh
   gradient norm :     0.0204063 Eh/a0  converged?    E=F G=F D=F
   step length   :     0.1296859 a0

........................................................................
.............................. CYCLE    4 ..............................
........................................................................

 iter      E             dE          RMSdq      gap      omega  full diag
   1    -22.3791441 -0.223791E+02  0.275E-01    4.29       0.0  T
   2    -22.3616742  0.174699E-01  0.832E-01    4.43       1.0  T
   3    -22.3801203 -0.184461E-01  0.114E-01    4.32       1.0  T
   4    -22.3800556  0.647169E-04  0.898E-02    4.33       1.0  T
   5    -22.3801736 -0.118071E-03  0.153E-02    4.33       1.6  T
   6    -22.3801760 -0.237948E-05  0.917E-03    4.33       2.6  T
   7    -22.3801766 -0.559092E-06  0.504E-03    4.33       4.8  T
   8    -22.3801771 -0.484228E-06  0.156E-03    4.33      15.6  T
   9    -22.3801771 -0.301452E-07  0.571E-04    4.33      42.5  T
  10    -22.3801771 -0.553974E-08  0.111E-04    4.33     217.6  T
     SCC iter.                  ...        0 min,  0.012 sec
     gradient                   ...        0 min,  0.008 sec
 * total energy  :   -21.9914375 Eh     change       -0.1391789E-02 Eh
   gradient norm :     0.0149388 Eh/a0  converged?    E=F G=F D=F
   step length   :     0.4743721 a0

........................................................................
.............................. CYCLE    5 ..............................
........................................................................

 iter      E             dE          RMSdq      gap      omega  full diag
   1    -22.3774275 -0.223774E+02  0.211E-01    4.28       0.0  T
   2    -22.3751976  0.222987E-02  0.316E-01    4.34       1.0  T
   3    -22.3767428 -0.154513E-02  0.207E-01    4.26       1.0  T
   4    -22.3775237 -0.780920E-03  0.783E-02    4.29       1.0  T
   5    -22.3775992 -0.754935E-04  0.154E-02    4.29       1.6  T
   6    -22.3776041 -0.497113E-05  0.690E-03    4.30       3.5  T
   7    -22.3776044 -0.275448E-06  0.266E-03    4.30       9.1  T
   8    -22.3776046 -0.177090E-06  0.503E-04    4.30      48.2  T
   9    -22.3776046 -0.192536E-08  0.247E-04    4.30      98.1  T
     SCC iter.                  ...        0 min,  0.014 sec
     gradient                   ...        0 min,  0.002 sec
 * total energy  :   -21.9921551 Eh     change       -0.7176419E-03 Eh
   gradient norm :     0.0150568 Eh/a0  converged?    E=F G=F D=F
   step length   :     0.4919119 a0

........................................................................
.............................. CYCLE    6 ..............................
........................................................................

 iter      E             dE          RMSdq      gap      omega  full diag
   1    -22.3749094 -0.223749E+02  0.247E-01    4.27       0.0  T
   2    -22.3741917  0.717635E-03  0.213E-01    4.31       1.0  T
   3    -22.3720327  0.215906E-02  0.360E-01    4.21       1.0  T
   4    -22.3749001 -0.286745E-02  0.917E-02    4.28       1.0  T
   5    -22.3750025 -0.102344E-03  0.199E-02    4.28       1.2  T
   6    -22.3750125 -0.100480E-04  0.559E-03    4.28       4.3  T
   7    -22.3750124  0.860057E-07  0.273E-03    4.28       8.9  T
   8    -22.3750126 -0.191681E-06  0.527E-04    4.28      46.0  T
   9    -22.3750126 -0.400837E-08  0.224E-04    4.28     108.3  T
     SCC iter.                  ...        0 min,  0.018 sec
     gradient                   ...        0 min,  0.003 sec
 * total energy  :   -21.9925673 Eh     change       -0.4121456E-03 Eh
   gradient norm :     0.0239179 Eh/a0  converged?    E=F G=F D=F
   step length   :     0.5492956 a0

........................................................................
.............................. CYCLE    7 ..............................
........................................................................

 iter      E             dE          RMSdq      gap      omega  full diag
   1    -22.3856489 -0.223856E+02  0.128E-01    4.33       0.0  T
   2    -22.3852336  0.415247E-03  0.140E-01    4.30       1.0  T
   3    -22.3850063  0.227303E-03  0.176E-01    4.35       1.0  T
   4    -22.3856732 -0.666850E-03  0.294E-02    4.33       1.0  T
   5    -22.3856920 -0.188512E-04  0.767E-03    4.33       3.2  T
   6    -22.3856929 -0.838078E-06  0.233E-03    4.33      10.4  T
   7    -22.3856929 -0.838778E-09  0.124E-03    4.33      19.5  T
   8    -22.3856929 -0.175064E-07  0.400E-04    4.33      60.6  T
   9    -22.3856929 -0.294919E-08  0.108E-04    4.33     224.6  T
     SCC iter.                  ...        0 min,  0.008 sec
     gradient                   ...        0 min,  0.005 sec
 * total energy  :   -21.9929829 Eh     change       -0.4156392E-03 Eh
   gradient norm :     0.0201199 Eh/a0  converged?    E=F G=F D=F
   step length   :     0.1670702 a0

........................................................................
.............................. CYCLE    8 ..............................
........................................................................

 iter      E             dE          RMSdq      gap      omega  full diag
   1    -22.3846788 -0.223847E+02  0.145E-01    4.28       0.0  T
   2    -22.3813563  0.332246E-02  0.356E-01    4.36       1.0  T
   3    -22.3847346 -0.337829E-02  0.107E-01    4.29       1.0  T
   4    -22.3849160 -0.181434E-03  0.280E-02    4.30       1.0  T
   5    -22.3849305 -0.144495E-04  0.753E-03    4.30       3.2  T
   6    -22.3849315 -0.993033E-06  0.260E-03    4.30       9.3  T
   7    -22.3849315 -0.202103E-07  0.775E-04    4.30      31.3  T
   8    -22.3849315  0.123138E-08  0.523E-04    4.30      46.4  T
     SCC iter.                  ...        0 min,  0.007 sec
     gradient                   ...        0 min,  0.003 sec
 * total energy  :   -21.9934092 Eh     change       -0.4262521E-03 Eh
   gradient norm :     0.0068336 Eh/a0  converged?    E=F G=F D=F
   step length   :     0.1969570 a0

........................................................................
.............................. CYCLE    9 ..............................
........................................................................

 iter      E             dE          RMSdq      gap      omega  full diag
   1    -22.3823957 -0.223824E+02  0.122E-01    4.29       0.0  T
   2    -22.3823653  0.304580E-04  0.765E-02    4.30       1.0  T
   3    -22.3816187  0.746570E-03  0.180E-01    4.26       1.0  T
   4    -22.3823856 -0.766910E-03  0.371E-02    4.30       1.0  T
   5    -22.3824060 -0.204058E-04  0.747E-03    4.29       3.2  T
   6    -22.3824073 -0.129411E-05  0.237E-03    4.29      10.2  T
   7    -22.3824074 -0.464360E-07  0.442E-04    4.29      54.9  T
   8    -22.3824074 -0.212214E-08  0.188E-04    4.29     129.1  T
     SCC iter.                  ...        0 min,  0.006 sec
     gradient                   ...        0 min,  0.002 sec
 * total energy  :   -21.9936435 Eh     change       -0.2343367E-03 Eh
   gradient norm :     0.0102932 Eh/a0  converged?    E=F G=F D=F
   step length   :     0.2940745 a0

........................................................................
.............................. CYCLE   10 ..............................
........................................................................

 iter      E             dE          RMSdq      gap      omega  full diag
   1    -22.3830438 -0.223830E+02  0.935E-02    4.28       0.0  T
   2    -22.3830445 -0.736560E-06  0.553E-02    4.29       1.0  T
   3    -22.3830101  0.344215E-04  0.441E-02    4.28       1.0  T
   4    -22.3830128 -0.271405E-05  0.366E-02    4.29       1.0  T
   5    -22.3830470 -0.341868E-04  0.337E-03    4.29       7.2  T
   6    -22.3830471 -0.150620E-06  0.181E-03    4.29      13.4  T
   7    -22.3830472 -0.356575E-07  0.804E-04    4.29      30.2  T
   8    -22.3830472 -0.144573E-07  0.169E-04    4.29     143.8  T
     SCC iter.                  ...        0 min,  0.005 sec
     gradient                   ...        0 min,  0.004 sec
 * total energy  :   -21.9938940 Eh     change       -0.2505036E-03 Eh
   gradient norm :     0.0108227 Eh/a0  converged?    E=F G=F D=F
   step length   :     0.2367803 a0

........................................................................
.............................. CYCLE   11 ..............................
........................................................................

 iter      E             dE          RMSdq      gap      omega  full diag
   1    -22.3821266 -0.223821E+02  0.143E-01    4.27       0.0  T
   2    -22.3819559  0.170771E-03  0.121E-01    4.25       1.0  T
   3    -22.3813599  0.595990E-03  0.181E-01    4.30       1.0  T
   4    -22.3821153 -0.755471E-03  0.422E-02    4.26       1.0  T
   5    -22.3821509 -0.355964E-04  0.469E-03    4.27       5.2  T
   6    -22.3821511 -0.159743E-06  0.289E-03    4.27       8.4  T
   7    -22.3821512 -0.854830E-07  0.887E-04    4.27      27.3  T
   8    -22.3821512 -0.167760E-07  0.230E-04    4.27     105.5  T
     SCC iter.                  ...        0 min,  0.011 sec
     gradient                   ...        0 min,  0.002 sec
 * total energy  :   -21.9941267 Eh     change       -0.2327213E-03 Eh
   gradient norm :     0.0069517 Eh/a0  converged?    E=F G=F D=F
   step length   :     0.3552688 a0

........................................................................
.............................. CYCLE   12 ..............................
........................................................................

 iter      E             dE          RMSdq      gap      omega  full diag
   1    -22.3867641 -0.223868E+02  0.913E-02    4.26       0.0  T
   2    -22.3867129  0.512199E-04  0.746E-02    4.27       1.0  T
   3    -22.3864822  0.230697E-03  0.109E-01    4.24       1.0  T
   4    -22.3867520 -0.269787E-03  0.322E-02    4.27       1.0  T
   5    -22.3867743 -0.223133E-04  0.301E-03    4.26       8.1  T
   6    -22.3867744 -0.885152E-07  0.140E-03    4.26      17.3  T
   7    -22.3867744 -0.107667E-07  0.652E-04    4.26      37.2  T
   8    -22.3867744 -0.489528E-08  0.297E-04    4.26      81.7  T
     SCC iter.                  ...        0 min,  0.006 sec
     gradient                   ...        0 min,  0.003 sec
 * total energy  :   -21.9942556 Eh     change       -0.1288281E-03 Eh
   gradient norm :     0.0058780 Eh/a0  converged?    E=F G=F D=F
   step length   :     0.2073311 a0

........................................................................
.............................. CYCLE   13 ..............................
........................................................................

 iter      E             dE          RMSdq      gap      omega  full diag
   1    -22.3813295 -0.223813E+02  0.210E-01    4.24       0.0  T
   2    -22.3810758  0.253742E-03  0.173E-01    4.21       1.0  T
   3    -22.3799654  0.111035E-02  0.237E-01    4.28       1.0  T
   4    -22.3812540 -0.128862E-02  0.751E-02    4.22       1.0  T
   5    -22.3813812 -0.127199E-03  0.933E-03    4.23       2.6  T
   6    -22.3813826 -0.140270E-05  0.360E-03    4.23       6.7  T
   7    -22.3813827 -0.446280E-07  0.893E-04    4.23      27.1  T
   8    -22.3813827 -0.705404E-08  0.444E-04    4.23      54.7  T
     SCC iter.                  ...        0 min,  0.006 sec
     gradient                   ...        0 min,  0.002 sec
 * total energy  :   -21.9942905 Eh     change       -0.3490607E-04 Eh
   gradient norm :     0.0119241 Eh/a0  converged?    E=F G=F D=F
   step length   :     0.5079765 a0

........................................................................
.............................. CYCLE   14 ..............................
........................................................................

 iter      E             dE          RMSdq      gap      omega  full diag
   1    -22.3858576 -0.223859E+02  0.935E-02    4.26       0.0  T
   2    -22.3858524  0.510559E-05  0.607E-02    4.26       1.0  T
   3    -22.3856071  0.245384E-03  0.100E-01    4.24       1.0  T
   4    -22.3858231 -0.216075E-03  0.408E-02    4.27       1.0  T
   5    -22.3858636 -0.404327E-04  0.488E-03    4.26       5.0  T
   6    -22.3858639 -0.349031E-06  0.160E-03    4.26      15.2  T
   7    -22.3858639 -0.319379E-08  0.544E-04    4.26      44.6  T
   8    -22.3858639 -0.275627E-08  0.236E-04    4.26     102.8  T
     SCC iter.                  ...        0 min,  0.008 sec
     gradient                   ...        0 min,  0.004 sec
 * total energy  :   -21.9944128 Eh     change       -0.1223048E-03 Eh
   gradient norm :     0.0033274 Eh/a0  converged?    E=F G=F D=F
   step length   :     0.2244770 a0

........................................................................
.............................. CYCLE   15 ..............................
........................................................................

 iter      E             dE          RMSdq      gap      omega  full diag
   1    -22.3859088 -0.223859E+02  0.524E-02    4.26       0.0  T
   2    -22.3859000  0.880621E-05  0.378E-02    4.25       1.0  T
   3    -22.3857964  0.103646E-03  0.673E-02    4.27       1.0  T
   4    -22.3859034 -0.107065E-03  0.186E-02    4.25       1.3  T
   5    -22.3859109 -0.745648E-05  0.155E-03    4.25      15.6  T
   6    -22.3859109 -0.420229E-07  0.613E-04    4.25      39.6  T
   7    -22.3859109 -0.765525E-09  0.248E-04    4.25      97.8  T
     SCC iter.                  ...        0 min,  0.007 sec
     gradient                   ...        0 min,  0.002 sec
 * total energy  :   -21.9944578 Eh     change       -0.4500108E-04 Eh
   gradient norm :     0.0029681 Eh/a0  converged?    E=F G=F D=F
   step length   :     0.1207541 a0

........................................................................
.............................. CYCLE   16 ..............................
........................................................................

 iter      E             dE          RMSdq      gap      omega  full diag
   1    -22.3842070 -0.223842E+02  0.186E-01    4.24       0.0  T
   2    -22.3840538  0.153143E-03  0.143E-01    4.22       1.0  T
   3    -22.3828833  0.117056E-02  0.231E-01    4.28       1.0  T
   4    -22.3841792 -0.129596E-02  0.488E-02    4.23       1.0  T
   5    -22.3842344 -0.551941E-04  0.592E-03    4.24       4.1  T
   6    -22.3842350 -0.540367E-06  0.242E-03    4.24      10.0  T
   7    -22.3842350 -0.128022E-07  0.686E-04    4.24      35.4  T
   8    -22.3842350 -0.427681E-08  0.284E-04    4.24      85.5  T
     SCC iter.                  ...        0 min,  0.007 sec
     gradient                   ...        0 min,  0.002 sec
 * total energy  :   -21.9945180 Eh     change       -0.6026259E-04 Eh
   gradient norm :     0.0064975 Eh/a0  converged?    E=F G=F D=F
   step length   :     0.4396853 a0

........................................................................
.............................. CYCLE   17 ..............................
........................................................................

 iter      E             dE          RMSdq      gap      omega  full diag
   1    -22.3866481 -0.223866E+02  0.384E-02    4.24       0.0  T
   2    -22.3865800  0.680845E-04  0.620E-02    4.25       1.0  T
   3    -22.3866544 -0.744291E-04  0.191E-02    4.24       1.3  T
   4    -22.3866534  0.100564E-05  0.109E-02    4.24       2.2  T
   5    -22.3866562 -0.276599E-05  0.207E-03    4.24      11.7  T
   6    -22.3866563 -0.487715E-07  0.861E-04    4.24      28.2  T
   7    -22.3866563 -0.475801E-08  0.311E-04    4.24      77.9  T
     SCC iter.                  ...        0 min,  0.012 sec
     gradient                   ...        0 min,  0.002 sec
 * total energy  :   -21.9945658 Eh     change       -0.4774665E-04 Eh
   gradient norm :     0.0040519 Eh/a0  converged?    E=F G=F D=F
   step length   :     0.0705490 a0

........................................................................
.............................. CYCLE   18 ..............................
........................................................................

 iter      E             dE          RMSdq      gap      omega  full diag
   1    -22.3871649 -0.223872E+02  0.535E-02    4.24       0.0  T
   2    -22.3871508  0.141525E-04  0.404E-02    4.24       1.0  T
   3    -22.3870417  0.109074E-03  0.713E-02    4.26       1.0  T
   4    -22.3871662 -0.124534E-03  0.540E-03    4.24       4.5  T
   5    -22.3871670 -0.734458E-06  0.129E-03    4.24      18.9  T
   6    -22.3871670 -0.228814E-08  0.731E-04    4.24      33.2  T
   7    -22.3871670 -0.863883E-08  0.191E-04    4.24     127.2  T
     SCC iter.                  ...        0 min,  0.005 sec
     gradient                   ...        0 min,  0.004 sec
 * total energy  :   -21.9946076 Eh     change       -0.4183211E-04 Eh
   gradient norm :     0.0031260 Eh/a0  converged?    E=F G=F D=F
   step length   :     0.1233106 a0

........................................................................
.............................. CYCLE   19 ..............................
........................................................................

 iter      E             dE          RMSdq      gap      omega  full diag
   1    -22.3843632 -0.223844E+02  0.223E-01    4.23       0.0  T
   2    -22.3840869  0.276295E-03  0.179E-01    4.20       1.0  T
   3    -22.3826807  0.140613E-02  0.265E-01    4.27       1.0  T
   4    -22.3843719 -0.169119E-02  0.354E-02    4.22       1.0  T
   5    -22.3844052 -0.333030E-04  0.662E-03    4.22       3.7  T
   6    -22.3844057 -0.470726E-06  0.305E-03    4.22       8.0  T
   7    -22.3844057 -0.147337E-07  0.943E-04    4.22      25.7  T
   8    -22.3844057 -0.571538E-08  0.465E-04    4.22      52.1  T
     SCC iter.                  ...        0 min,  0.006 sec
     gradient                   ...        0 min,  0.006 sec
 * total energy  :   -21.9946659 Eh     change       -0.5826438E-04 Eh
   gradient norm :     0.0057207 Eh/a0  converged?    E=F G=F D=F
   step length   :     0.5323430 a0

........................................................................
.............................. CYCLE   20 ..............................
........................................................................

 iter      E             dE          RMSdq      gap      omega  full diag
   1    -22.3874408 -0.223874E+02  0.631E-02    4.23       0.0  T
   2    -22.3872844  0.156399E-03  0.966E-02    4.25       1.0  T
   3    -22.3874554 -0.171063E-03  0.321E-02    4.23       1.0  T
   4    -22.3874539  0.149415E-05  0.157E-02    4.24       1.5  T
   5    -22.3874595 -0.560538E-05  0.242E-03    4.24      10.0  T
   6    -22.3874596 -0.604517E-07  0.107E-03    4.23      22.7  T
   7    -22.3874596 -0.321597E-08  0.376E-04    4.23      64.5  T
   8    -22.3874596 -0.159679E-08  0.125E-04    4.23     194.2  T
     SCC iter.                  ...        0 min,  0.015 sec
     gradient                   ...        0 min,  0.005 sec
 * total energy  :   -21.9947241 Eh     change       -0.5823435E-04 Eh
   gradient norm :     0.0041394 Eh/a0  converged?    E=F G=F D=F
   step length   :     0.1256148 a0
 * RMSD in coord.:     1.0221779 a0     energy gain  -0.1356088E-01 Eh
 * calculating model hessian...
Using Lindh-Hessian (1995)
 Shifting diagonal of input Hessian by    1.0000000000000000E-002
 Lowest  eigenvalues of input Hessian
    0.000000    0.000000    0.000000    0.000000    0.000000    0.000000
    0.013316    0.015422    0.017706    0.025058    0.026389    0.033857
    0.036734    0.039912    0.055505    0.062445    0.066749    0.079121
 Highest eigenvalues
    1.562764    1.628136    1.800102    1.873854    1.963162    2.009566


........................................................................
.............................. CYCLE   21 ..............................
........................................................................

 iter      E             dE          RMSdq      gap      omega  full diag
   1    -22.3868641 -0.223869E+02  0.319E-02    4.23       0.0  T
   2    -22.3868630  0.108264E-05  0.201E-02    4.23       1.2  T
   3    -22.3868357  0.272937E-04  0.351E-02    4.24       1.0  T
   4    -22.3868614 -0.256800E-04  0.127E-02    4.23       1.9  T
   5    -22.3868651 -0.369720E-05  0.161E-03    4.23      15.0  T
   6    -22.3868651 -0.362186E-07  0.606E-04    4.23      40.0  T
   7    -22.3868651 -0.326040E-09  0.164E-04    4.23     148.1  T
     SCC iter.                  ...        0 min,  0.004 sec
     gradient                   ...        0 min,  0.003 sec
 * total energy  :   -21.9947854 Eh     change       -0.6126541E-04 Eh
   gradient norm :     0.0023979 Eh/a0  converged?    E=F G=F D=F
   step length   :     0.0450629 a0

........................................................................
.............................. CYCLE   22 ..............................
........................................................................

 iter      E             dE          RMSdq      gap      omega  full diag
   1    -22.3837318 -0.223837E+02  0.159E-01    4.22       0.0  T
   2    -22.3837392 -0.746049E-05  0.912E-02    4.22       1.0  T
   3    -22.3836091  0.130070E-03  0.808E-02    4.24       1.0  T
   4    -22.3836722 -0.630451E-04  0.548E-02    4.21       1.0  T
   5    -22.3837480 -0.758265E-04  0.742E-03    4.22       3.3  T
   6    -22.3837486 -0.536762E-06  0.297E-03    4.22       8.2  T
   7    -22.3837486 -0.194904E-07  0.578E-04    4.22      42.0  T
   8    -22.3837486 -0.261095E-08  0.327E-04    4.22      74.1  T
     SCC iter.                  ...        0 min,  0.007 sec
     gradient                   ...        0 min,  0.004 sec
 * total energy  :   -21.9948809 Eh     change       -0.9557139E-04 Eh
   gradient norm :     0.0134185 Eh/a0  converged?    E=F G=F D=F
   step length   :     0.2401480 a0

........................................................................
.............................. CYCLE   23 ..............................
........................................................................

 iter      E             dE          RMSdq      gap      omega  full diag
   1    -22.3856438 -0.223856E+02  0.413E-02    4.23       0.0  T
   2    -22.3856406  0.326997E-05  0.259E-02    4.23       1.0  T
   3    -22.3855734  0.671409E-04  0.551E-02    4.24       1.0  T
   4    -22.3856438 -0.703527E-04  0.101E-02    4.23       2.4  T
   5    -22.3856453 -0.153859E-05  0.282E-03    4.23       8.6  T
   6    -22.3856454 -0.136419E-06  0.785E-04    4.23      30.9  T
   7    -22.3856454 -0.166655E-08  0.204E-04    4.23     118.7  T
     SCC iter.                  ...        0 min,  0.005 sec
     gradient                   ...        0 min,  0.003 sec
 * total energy  :   -21.9949590 Eh     change       -0.7804411E-04 Eh
   gradient norm :     0.0050241 Eh/a0  converged?    E=F G=F D=F
   step length   :     0.0587381 a0

........................................................................
.............................. CYCLE   24 ..............................
........................................................................

 iter      E             dE          RMSdq      gap      omega  full diag
   1    -22.3860488 -0.223860E+02  0.500E-02    4.23       0.0  T
   2    -22.3860269  0.219036E-04  0.400E-02    4.22       1.0  T
   3    -22.3859584  0.684572E-04  0.646E-02    4.24       1.0  T
   4    -22.3860519 -0.934976E-04  0.432E-03    4.23       5.6  T
   5    -22.3860522 -0.319829E-06  0.162E-03    4.23      15.0  T
   6    -22.3860522  0.461665E-08  0.968E-04    4.23      25.0  T
   7    -22.3860522 -0.148301E-07  0.199E-04    4.23     121.8  T
     SCC iter.                  ...        0 min,  0.009 sec
     gradient                   ...        0 min,  0.003 sec
 * total energy  :   -21.9950434 Eh     change       -0.8443162E-04 Eh
   gradient norm :     0.0036860 Eh/a0  converged?    E=F G=F D=F
   step length   :     0.0677110 a0

........................................................................
.............................. CYCLE   25 ..............................
........................................................................

 iter      E             dE          RMSdq      gap      omega  full diag
   1    -22.3795534 -0.223796E+02  0.350E-01    4.24       0.0  T
   2    -22.3780977  0.145567E-02  0.322E-01    4.17       1.0  T
   3    -22.3765732  0.152448E-02  0.377E-01    4.29       1.0  T
   4    -22.3797346 -0.316139E-02  0.371E-02    4.22       1.0  T
   5    -22.3797628 -0.281951E-04  0.134E-02    4.23       1.8  T
   6    -22.3797636 -0.811180E-06  0.627E-03    4.23       3.9  T
   7    -22.3797637 -0.108044E-06  0.364E-03    4.23       6.7  T
   8    -22.3797639 -0.157470E-06  0.133E-03    4.23      18.3  T
   9    -22.3797639 -0.374353E-07  0.305E-04    4.23      79.6  T
  10    -22.3797639 -0.489749E-09  0.128E-04    4.23     189.2  T
     SCC iter.                  ...        0 min,  0.010 sec
     gradient                   ...        0 min,  0.002 sec
 * total energy  :   -21.9944824 Eh     change        0.5610619E-03 Eh
   gradient norm :     0.0366069 Eh/a0  converged?    E=F G=F D=F
   step length   :     0.4959777 a0

........................................................................
.............................. CYCLE   26 ..............................
........................................................................

 iter      E             dE          RMSdq      gap      omega  full diag
   1    -22.3869302 -0.223869E+02  0.280E-01    4.22       0.0  T
   2    -22.3858129  0.111726E-02  0.272E-01    4.28       1.0  T
   3    -22.3853232  0.489750E-03  0.286E-01    4.17       1.0  T
   4    -22.3870769 -0.175375E-02  0.195E-02    4.23       1.2  T
   5    -22.3870796 -0.272893E-05  0.121E-02    4.23       2.0  T
   6    -22.3870804 -0.775694E-06  0.530E-03    4.23       4.6  T
   7    -22.3870810 -0.620216E-06  0.147E-03    4.23      16.6  T
   8    -22.3870811 -0.357972E-07  0.523E-04    4.23      46.4  T
   9    -22.3870811  0.827725E-09  0.378E-04    4.23      64.1  T
     SCC iter.                  ...        0 min,  0.010 sec
     gradient                   ...        0 min,  0.003 sec
 * total energy  :   -21.9951614 Eh     change       -0.6789968E-03 Eh
   gradient norm :     0.0026419 Eh/a0  converged?    E=F G=F D=F
   step length   :     0.3923382 a0

........................................................................
.............................. CYCLE   27 ..............................
........................................................................

 iter      E             dE          RMSdq      gap      omega  full diag
   1    -22.3868137 -0.223868E+02  0.465E-02    4.23       0.0  T
   2    -22.3867730  0.406631E-04  0.486E-02    4.22       1.0  T
   3    -22.3867730 -0.223887E-07  0.470E-02    4.24       1.0  T
   4    -22.3868188 -0.457308E-04  0.409E-03    4.23       5.9  T
   5    -22.3868191 -0.301771E-06  0.170E-03    4.23      14.3  T
   6    -22.3868191 -0.129055E-07  0.602E-04    4.23      40.3  T
   7    -22.3868191 -0.548956E-08  0.164E-04    4.23     148.2  T
     SCC iter.                  ...        0 min,  0.006 sec
     gradient                   ...        0 min,  0.003 sec
 * total energy  :   -21.9952292 Eh     change       -0.6785361E-04 Eh
   gradient norm :     0.0016242 Eh/a0  converged?    E=F G=F D=F
   step length   :     0.0680279 a0

........................................................................
.............................. CYCLE   28 ..............................
........................................................................

 iter      E             dE          RMSdq      gap      omega  full diag
   1    -22.3548343 -0.223548E+02  0.686E-01    4.22       0.0  T
   2    -22.3507841  0.405024E-02  0.612E-01    4.09       1.0  T
   3    -22.3450140  0.577005E-02  0.657E-01    4.30       1.0  T
   4    -22.3554391 -0.104251E-01  0.673E-02    4.19       1.0  T
   5    -22.3555187 -0.795686E-04  0.276E-02    4.19       1.0  T
   6    -22.3555160  0.269520E-05  0.219E-02    4.19       1.1  T
   7    -22.3555200 -0.402170E-05  0.112E-02    4.19       2.2  T
   8    -22.3555219 -0.184121E-05  0.275E-03    4.19       8.8  T
   9    -22.3555220 -0.131954E-06  0.896E-04    4.19      27.1  T
  10    -22.3555220 -0.791478E-08  0.405E-04    4.19      59.9  T
     SCC iter.                  ...        0 min,  0.009 sec
     gradient                   ...        0 min,  0.002 sec
 * total energy  :   -21.9827679 Eh     change        0.1246133E-01 Eh
   gradient norm :     0.0993642 Eh/a0  converged?    E=F G=F D=F
   step length   :     1.3705675 a0

........................................................................
.............................. CYCLE   29 ..............................
........................................................................

 iter      E             dE          RMSdq      gap      omega  full diag
   1    -22.3816840 -0.223817E+02  0.477E-01    4.20       0.0  T
   2    -22.3786275  0.305653E-02  0.477E-01    4.29       1.0  T
   3    -22.3781936  0.433892E-03  0.422E-01    4.13       1.0  T
   4    -22.3820981 -0.390449E-02  0.345E-02    4.22       1.0  T
   5    -22.3820998 -0.164240E-05  0.273E-02    4.23       1.0  T
   6    -22.3821015 -0.171656E-05  0.164E-02    4.23       1.5  T
   7    -22.3821073 -0.576683E-05  0.285E-03    4.22       8.5  T
   8    -22.3821073 -0.550273E-07  0.967E-04    4.22      25.1  T
   9    -22.3821073 -0.373153E-08  0.666E-04    4.22      36.4  T
     SCC iter.                  ...        0 min,  0.005 sec
     gradient                   ...        0 min,  0.002 sec
 * total energy  :   -21.9950548 Eh     change       -0.1228696E-01 Eh
   gradient norm :     0.0232038 Eh/a0  converged?    E=F G=F D=F
   step length   :     0.6498189 a0

........................................................................
.............................. CYCLE   30 ..............................
........................................................................

 iter      E             dE          RMSdq      gap      omega  full diag
   1    -22.3844661 -0.223845E+02  0.388E-02    4.22       0.0  T
   2    -22.3844664 -0.284207E-06  0.227E-02    4.23       1.1  T
   3    -22.3844641  0.229349E-05  0.991E-03    4.22       2.4  T
   4    -22.3844657 -0.159550E-05  0.645E-03    4.23       3.8  T
   5    -22.3844665 -0.844943E-06  0.193E-03    4.23      12.6  T
   6    -22.3844666 -0.209005E-07  0.799E-04    4.23      30.4  T
   7    -22.3844666 -0.108358E-07  0.254E-04    4.23      95.6  T
     SCC iter.                  ...        0 min,  0.005 sec
     gradient                   ...        0 min,  0.003 sec
 * total energy  :   -21.9953416 Eh     change       -0.2867279E-03 Eh
   gradient norm :     0.0100039 Eh/a0  converged?    E=F G=F D=F
   step length   :     0.0503218 a0

........................................................................
.............................. CYCLE   31 ..............................
........................................................................

 iter      E             dE          RMSdq      gap      omega  full diag
   1    -22.3860339 -0.223860E+02  0.283E-02    4.22       0.0  T
   2    -22.3860154  0.185359E-04  0.345E-02    4.23       1.0  T
   3    -22.3860302 -0.148475E-04  0.189E-02    4.22       1.3  T
   4    -22.3860358 -0.558254E-05  0.478E-03    4.23       5.1  T
   5    -22.3860362 -0.344209E-06  0.155E-03    4.23      15.7  T
   6    -22.3860362 -0.891601E-08  0.930E-04    4.23      26.1  T
   7    -22.3860362 -0.156650E-07  0.217E-04    4.23     111.7  T
     SCC iter.                  ...        0 min,  0.008 sec
     gradient                   ...        0 min,  0.006 sec
 * total energy  :   -21.9954078 Eh     change       -0.6621456E-04 Eh
   gradient norm :     0.0015690 Eh/a0  converged?    E=F G=F D=F
   step length   :     0.0287395 a0

........................................................................
.............................. CYCLE   32 ..............................
........................................................................

 iter      E             dE          RMSdq      gap      omega  full diag
   1    -22.3861696 -0.223862E+02  0.156E-02    4.22       0.0  T
   2    -22.3861445  0.251335E-04  0.334E-02    4.23       1.0  T
   3    -22.3861720 -0.275017E-04  0.718E-03    4.23       3.4  T
   4    -22.3861723 -0.300895E-06  0.353E-03    4.23       6.9  T
   5    -22.3861725 -0.166410E-06  0.438E-04    4.23      55.4  T
   6    -22.3861725 -0.417582E-09  0.326E-04    4.23      74.4  T
     SCC iter.                  ...        0 min,  0.007 sec
     gradient                   ...        0 min,  0.001 sec
 * total energy  :   -21.9954154 Eh     change       -0.7581087E-05 Eh
   gradient norm :     0.0005900 Eh/a0  converged?    E=F G=T D=F
   step length   :     0.0160953 a0

........................................................................
.............................. CYCLE   33 ..............................
........................................................................

 iter      E             dE          RMSdq      gap      omega  full diag
   1    -22.3860641 -0.223861E+02  0.193E-02    4.22       0.0  T
   2    -22.3860364  0.277077E-04  0.351E-02    4.23       1.0  T
   3    -22.3860653 -0.289814E-04  0.118E-02    4.22       2.1  T
   4    -22.3860671 -0.177955E-05  0.326E-03    4.23       7.5  T
   5    -22.3860673 -0.150628E-06  0.796E-04    4.23      30.5  T
   6    -22.3860673 -0.951291E-08  0.334E-04    4.23      72.7  T
     SCC iter.                  ...        0 min,  0.006 sec
     gradient                   ...        0 min,  0.003 sec
 * total energy  :   -21.9954229 Eh     change       -0.7571345E-05 Eh
   gradient norm :     0.0008215 Eh/a0  converged?    E=F G=F D=F
   step length   :     0.0285262 a0

........................................................................
.............................. CYCLE   34 ..............................
........................................................................

 iter      E             dE          RMSdq      gap      omega  full diag
   1    -22.3859792 -0.223860E+02  0.443E-02    4.22       0.0  T
   2    -22.3858956  0.836190E-04  0.633E-02    4.24       1.0  T
   3    -22.3859715 -0.759569E-04  0.330E-02    4.22       1.0  T
   4    -22.3859890 -0.175152E-04  0.521E-03    4.22       4.7  T
   5    -22.3859894 -0.413031E-06  0.178E-03    4.22      13.7  T
   6    -22.3859895 -0.335273E-07  0.863E-04    4.22      28.1  T
   7    -22.3859895 -0.769590E-08  0.241E-04    4.22     100.7  T
     SCC iter.                  ...        0 min,  0.007 sec
     gradient                   ...        0 min,  0.003 sec
 * total energy  :   -21.9954355 Eh     change       -0.1257055E-04 Eh
   gradient norm :     0.0015477 Eh/a0  converged?    E=F G=F D=F
   step length   :     0.0676991 a0

........................................................................
.............................. CYCLE   35 ..............................
........................................................................

 iter      E             dE          RMSdq      gap      omega  full diag
   1    -22.3859549 -0.223860E+02  0.477E-02    4.22       0.0  T
   2    -22.3859178  0.370792E-04  0.475E-02    4.23       1.0  T
   3    -22.3859103  0.754312E-05  0.487E-02    4.21       1.0  T
   4    -22.3859599 -0.496804E-04  0.427E-03    4.22       5.7  T
   5    -22.3859603 -0.327974E-06  0.162E-03    4.22      14.9  T
   6    -22.3859603 -0.955089E-08  0.973E-04    4.22      24.9  T
   7    -22.3859603 -0.120733E-07  0.230E-04    4.22     105.4  T
     SCC iter.                  ...        0 min,  0.011 sec
     gradient                   ...        0 min,  0.015 sec
 * total energy  :   -21.9954464 Eh     change       -0.1093482E-04 Eh
   gradient norm :     0.0016613 Eh/a0  converged?    E=F G=F D=F
   step length   :     0.0729272 a0

........................................................................
.............................. CYCLE   36 ..............................
........................................................................

 iter      E             dE          RMSdq      gap      omega  full diag
   1    -22.3861752 -0.223862E+02  0.385E-02    4.22       0.0  T
   2    -22.3861726  0.255065E-05  0.248E-02    4.22       1.0  T
   3    -22.3860992  0.733913E-04  0.549E-02    4.21       1.0  T
   4    -22.3861761 -0.769139E-04  0.271E-03    4.22       8.9  T
   5    -22.3861763 -0.121054E-06  0.117E-03    4.22      20.7  T
   6    -22.3861763 -0.191724E-08  0.613E-04    4.22      39.6  T
   7    -22.3861763 -0.542462E-08  0.185E-04    4.22     130.9  T
     SCC iter.                  ...        0 min,  0.009 sec
     gradient                   ...        0 min,  0.006 sec
 * total energy  :   -21.9954546 Eh     change       -0.8136661E-05 Eh
   gradient norm :     0.0007280 Eh/a0  converged?    E=F G=T D=F
   step length   :     0.0575469 a0

........................................................................
.............................. CYCLE   37 ..............................
........................................................................

 iter      E             dE          RMSdq      gap      omega  full diag
   1    -22.3862739 -0.223863E+02  0.177E-02    4.22       0.0  T
   2    -22.3862735  0.365373E-06  0.111E-02    4.22       2.2  T
   3    -22.3862587  0.147665E-04  0.243E-02    4.21       1.0  T
   4    -22.3862741 -0.153150E-04  0.117E-03    4.22      20.8  T
   5    -22.3862741 -0.195585E-07  0.569E-04    4.22      42.6  T
   6    -22.3862741 -0.113996E-08  0.276E-04    4.22      87.7  T
     SCC iter.                  ...        0 min,  0.009 sec
     gradient                   ...        0 min,  0.007 sec
 * total energy  :   -21.9954565 Eh     change       -0.1964712E-05 Eh
   gradient norm :     0.0003021 Eh/a0  converged?    E=F G=T D=F
   step length   :     0.0272175 a0

........................................................................
.............................. CYCLE   38 ..............................
........................................................................

 iter      E             dE          RMSdq      gap      omega  full diag
   1    -22.3863356 -0.223863E+02  0.574E-03    4.22       0.0  T
   2    -22.3863357 -0.859963E-08  0.325E-03    4.22       7.5  T
   3    -22.3863356  0.720088E-07  0.186E-03    4.22      13.1  T
   4    -22.3863356 -0.646350E-07  0.706E-04    4.22      34.3  T
   5    -22.3863357 -0.126476E-07  0.194E-04    4.22     125.0  T
     SCC iter.                  ...        0 min,  0.006 sec
     gradient                   ...        0 min,  0.002 sec
 * total energy  :   -21.9954569 Eh     change       -0.3126431E-06 Eh
   gradient norm :     0.0001943 Eh/a0  converged?    E=T G=T D=F
   step length   :     0.0095212 a0

   *** GEOMETRY OPTIMIZATION CONVERGED AFTER 38 CYCLES ***

------------------------------------------------------------------------
 total energy gain   :        -0.0142936 Eh       -8.9694 kcal/mol
 total RMSD          :         1.0529650 a0        0.5572 Å
 total power (kW/mol):        -0.9875764 (step)  -64.0058 (real)
------------------------------------------------------------------------

 L-ANCopt (total)              0 d,  0 h,  0 min,  0.586 sec
 setup                          ...        0 min,  0.000 sec (  0.067%)
 model hessian                  ...        0 min,  0.005 sec (  0.906%)
 ANC generation                 ...        0 min,  0.001 sec (  0.145%)
 coordinate transformation      ...        0 min,  0.000 sec (  0.045%)
 Rational function              ...        0 min,  0.000 sec (  0.010%)
 singlepoint calculation        ...        0 min,  0.560 sec ( 95.524%)
 optimization log               ...        0 min,  0.009 sec (  1.609%)
 hessian update                 ...        0 min,  0.000 sec (  0.037%)

================
 final structure:
================
17
 xtb: 6.7.1 (edcfbbe)
N            1.58461490751856        0.97322473722584        0.18566391418619
C            2.25660969608050       -0.19716009893419       -0.19174336006299
C            2.91420891689034       -0.21838522640839       -1.52269733311325
C            3.10545991403564        0.93359872291308       -2.30011044277017
C            3.74458511947993        0.84903267634861       -3.51718504533730
C            4.19666396068576       -0.38640648895739       -3.99276608174091
C            4.02286494284172       -1.53668980817306       -3.22455098084225
C            3.39090111751810       -1.45738083954343       -2.00458781058582
H            1.17560087028229        1.02312339967722        1.10471559002320
H            1.20494113991704        1.58982670317912       -0.51409279494081
H            1.58245171480582       -1.08039771413507       -0.13759884861571
H            3.01472716799906       -0.43928497243550        0.57778350812158
H            2.79151768677215        1.89787814636547       -1.93148121671743
H            3.90958044290657        1.74032717803389       -4.10240319972794
H            4.68829821460233       -0.44565013318028       -4.95157848173059
H            4.37839310281413       -2.48738283619541       -3.58936348906129
H            3.24898045010646       -2.34847879002621       -1.41156779849838

 Bond Distances (Angstroems)
 ---------------------------
N1-C2=1.4014         N1-H9=1.0072         N1-H10=1.0070        C2-N1=1.4014         C2-C3=1.4847         C2-H11=1.1124        
C2-H12=1.1070        C3-C2=1.4847         C3-C4=1.4029         C3-C8=1.4123         C4-C3=1.4029         C4-C5=1.3773         
C4-H13=1.0790        C5-C4=1.3773         C5-C6=1.3989         C5-H14=1.0789        C6-C5=1.3989         C6-C7=1.3941         
C6-H15=1.0791        C7-C6=1.3941         C7-C8=1.3762         C7-H16=1.0786        C8-C3=1.4123         C8-C7=1.3762         
C8-H17=1.0798        H9-N1=1.0072         H10-N1=1.0070        H11-C2=1.1124        H12-C2=1.1070        H13-C4=1.0790        
H14-C5=1.0789        H15-C6=1.0791        H16-C7=1.0786        H17-C8=1.0798        
 C  H  Rav=1.0878 sigma=0.0139  Rmin=1.0786  Rmax=1.1124     7
 C  C  Rav=1.4066 sigma=0.0341  Rmin=1.3762  Rmax=1.4847     7
 N  H  Rav=1.0071 sigma=0.0001  Rmin=1.0070  Rmax=1.0072     2
 N  C  Rav=1.4014 sigma=0.0000  Rmin=1.4014  Rmax=1.4014     1

 selected bond angles (degree)
 --------------------
H9-N1-C2=118.81                H10-N1-C2=120.34               H10-N1-H9=116.78               C3-C2-N1=117.76                
H11-C2-N1=111.06               H11-C2-C3=107.50               H12-C2-N1=108.90               H12-C2-C3=108.46               
H12-C2-H11=101.98              C4-C3-C2=123.05                C8-C3-C2=117.90                C8-C3-C4=119.03                
C5-C4-C3=120.17                H13-C4-C3=120.32               H13-C4-C5=119.46               C6-C5-C4=120.31                
H14-C5-C4=119.97               H14-C5-C6=119.72               C7-C6-C5=120.07                H15-C6-C5=119.85               
H15-C6-C7=120.07               C8-C7-C6=119.88                H16-C7-C6=119.99               H16-C7-C8=120.13               
C7-C8-C3=120.53                H17-C8-C3=119.49               H17-C8-C7=119.98               

 selected dihedral angles (degree)
 ---------------------------------
C3-C2-N1-H9=183.27            C3-C2-N1-H10= 26.68           H11-C2-N1-H9= 58.74           H11-C2-N1-H10=262.15          
H12-C2-N1-H9=307.22           H12-C2-N1-H10=150.63          C4-C3-C2-N1= 12.09            C4-C3-C2-H11=138.38           
C4-C3-C2-H12=247.93           C8-C3-C2-N1=190.68            C8-C3-C2-H11=316.96           C8-C3-C2-H12= 66.52           
C5-C4-C3-C2=178.85            C5-C4-C3-C8=  0.27            H13-C4-C3-C2=  1.47           H13-C4-C3-C8=182.90           
C6-C5-C4-C3=  0.58            C6-C5-C4-H13=177.98           H14-C5-C4-C3=181.37           H14-C5-C4-H13=358.76          
C7-C6-C5-C4=358.87            C7-C6-C5-H14=178.09           H15-C6-C5-C4=179.43           H15-C6-C5-H14=358.65          
C8-C7-C6-C5=  0.80            C8-C7-C6-H15=180.24           H16-C7-C6-C5=180.45           H16-C7-C6-H15=359.89          
C7-C8-C3-C2=180.75            C7-C8-C3-C4=359.40            H17-C8-C3-C2=  1.26           H17-C8-C3-C4=179.91           
C3-C8-C7-C6=  0.06            C3-C8-C7-H16=180.42           H17-C8-C7-C6=179.55           H17-C8-C7-H16=359.91          
           -------------------------------------------------
          |                Final Singlepoint                |
           -------------------------------------------------

          ...................................................
          :                      SETUP                      :
          :.................................................:
          :  # basis functions                  41          :
          :  # atomic orbitals                  41          :
          :  # shells                           25          :
          :  # electrons                        41          :
          :  max. iterations                   250          :
          :  Hamiltonian                  GFN2-xTB          :
          :  restarted?                      false          :
          :  GBSA solvation                  false          :
          :  PC potential                    false          :
          :  electronic temp.          300.0000000     K    :
          :  accuracy                    1.0000000          :
          :  -> integral cutoff          0.2500000E+02      :
          :  -> integral neglect         0.1000000E-07      :
          :  -> SCF convergence          0.1000000E-05 Eh   :
          :  -> wf. convergence          0.1000000E-03 e    :
          :  Broyden damping             0.4000000          :
          :  net charge                          1          :
          :  unpaired electrons                  1          :
          ...................................................

 iter      E             dE          RMSdq      gap      omega  full diag
   1    -22.3863357 -0.223863E+02  0.770E-05    4.22       0.0  T
   2    -22.3863357  0.580989E-09  0.163E-04    4.22     148.9  T
   3    -22.3863357 -0.649280E-09  0.405E-05    4.22     599.2  T

   *** convergence criteria satisfied after 3 iterations ***

         #    Occupation            Energy/Eh            Energy/eV
      -------------------------------------------------------------
         1        2.0000           -0.8491476             -23.1065
       ...           ...                  ...                  ...
        15        2.0000           -0.6466932             -17.5974
        16        2.0000           -0.6435726             -17.5125
        17        2.0000           -0.5975905             -16.2613
        18        2.0000           -0.5907324             -16.0746
        19        2.0000           -0.5886591             -16.0182
        20        1.9999           -0.5813148             -15.8184
        21        1.0001           -0.5635608             -15.3353 (HOMO)
        22                         -0.4086415             -11.1197 (LUMO)
        23                         -0.3952607             -10.7556
        24                         -0.2748508              -7.4791
        25                         -0.1760055              -4.7894
        26                         -0.0803871              -2.1874
       ...                                ...                  ...
        41                          0.4778900              13.0041
      -------------------------------------------------------------
                  HL-Gap            0.1549194 Eh            4.2156 eV
             Fermi-level           -0.5292694 Eh          -14.4022 eV

 SCC (total)                   0 d,  0 h,  0 min,  0.012 sec
 SCC setup                      ...        0 min,  0.004 sec ( 33.777%)
 Dispersion                     ...        0 min,  0.000 sec (  0.853%)
 classical contributions        ...        0 min,  0.000 sec (  0.556%)
 integral evaluation            ...        0 min,  0.001 sec ( 10.738%)
 iterations                     ...        0 min,  0.002 sec ( 16.948%)
 molecular gradient             ...        0 min,  0.004 sec ( 30.156%)
 printout                       ...        0 min,  0.001 sec (  6.731%)

         :::::::::::::::::::::::::::::::::::::::::::::::::::::
         ::                     SUMMARY                     ::
         :::::::::::::::::::::::::::::::::::::::::::::::::::::
         :: total energy             -21.995456852926 Eh    ::
         :: gradient norm              0.000194664938 Eh/a0 ::
         :: HOMO-LUMO gap              4.215570556818 eV    ::
         ::.................................................::
         :: SCC energy               -22.386314112281 Eh    ::
         :: -> isotropic ES            0.088217502116 Eh    ::
         :: -> anisotropic ES         -0.014703991882 Eh    ::
         :: -> anisotropic XC          0.019036325406 Eh    ::
         :: -> dispersion             -0.011168218425 Eh    ::
         :: repulsion energy           0.390857259355 Eh    ::
         :: add. restraining           0.000000000000 Eh    ::
         :: total charge               1.000000000000 e     ::
         :::::::::::::::::::::::::::::::::::::::::::::::::::::

           -------------------------------------------------
          |                Property Printout                |
           -------------------------------------------------

    * Orbital Energies and Occupations

         #    Occupation            Energy/Eh            Energy/eV
      -------------------------------------------------------------
         1        2.0000           -0.8491476             -23.1065
       ...           ...                  ...                  ...
         9        2.0000           -0.7163848             -19.4938
        10        2.0000           -0.7118053             -19.3692
        11        2.0000           -0.6848817             -18.6366
        12        2.0000           -0.6677700             -18.1709
        13        2.0000           -0.6641487             -18.0724
        14        2.0000           -0.6505527             -17.7024
        15        2.0000           -0.6466932             -17.5974
        16        2.0000           -0.6435726             -17.5125
        17        2.0000           -0.5975905             -16.2613
        18        2.0000           -0.5907324             -16.0746
        19        2.0000           -0.5886591             -16.0182
        20        1.9999           -0.5813148             -15.8184
        21        1.0001           -0.5635608             -15.3353 (HOMO)
        22                         -0.4086415             -11.1197 (LUMO)
        23                         -0.3952607             -10.7556
        24                         -0.2748508              -7.4791
        25                         -0.1760055              -4.7894
        26                         -0.0803871              -2.1874
        27                         -0.0585838              -1.5941
        28                         -0.0404221              -1.0999
        29                         -0.0166671              -0.4535
        30                          0.0003116               0.0085
        31                          0.0066505               0.1810
        32                          0.0173254               0.4714
       ...                                ...                  ...
        41                          0.4778900              13.0041
      -------------------------------------------------------------
                  HL-Gap            0.1549194 Eh            4.2156 eV
             Fermi-level           -0.5292694 Eh          -14.4022 eV

     #   Z          covCN         q      C6AA      α(0)
     1   7 N        2.632    -0.189    25.099     7.441
     2   6 C        3.738    -0.003    20.722     6.496
     3   6 C        2.967     0.039    27.115     8.541
     4   6 C        2.915    -0.019    28.492     8.753
     5   6 C        2.914    -0.003    28.090     8.691
     6   6 C        2.918     0.016    27.657     8.624
     7   6 C        2.912    -0.007    28.195     8.707
     8   6 C        2.920    -0.017    28.428     8.743
     9   1 H        0.860     0.220     1.011     1.575
    10   1 H        0.860     0.218     1.017     1.580
    11   1 H        0.921     0.154     1.364     1.826
    12   1 H        0.922     0.156     1.350     1.817
    13   1 H        0.926     0.076     2.018     2.221
    14   1 H        0.926     0.092     1.864     2.135
    15   1 H        0.926     0.097     1.811     2.104
    16   1 H        0.926     0.092     1.864     2.135
    17   1 H        0.926     0.078     2.004     2.214

 Mol. C6AA /au·bohr⁶  :       2757.664538
 Mol. C8AA /au·bohr⁸  :      66376.173024
 Mol. α(0) /au        :         83.604041


Wiberg/Mayer (AO) data.
largest (>0.10) Wiberg bond orders for each atom

 ---------------------------------------------------------------------------
     #   Z sym  total        # sym  WBO       # sym  WBO       # sym  WBO
 ---------------------------------------------------------------------------
     1   7 N    3.376 --     2 C    1.136     9 H    0.937    10 H    0.931
                             3 C    0.103
     2   6 C    3.973 --     1 N    1.136     3 C    1.069    12 H    0.861
                            11 H    0.839
     3   6 C    3.971 --     4 C    1.334     8 C    1.291     2 C    1.069
                             1 N    0.103
     4   6 C    3.986 --     5 C    1.502     3 C    1.334    13 H    0.959
     5   6 C    3.981 --     4 C    1.502     6 C    1.349    14 H    0.962
     6   6 C    3.946 --     7 C    1.377     5 C    1.349    15 H    0.964
     7   6 C    3.984 --     8 C    1.506     6 C    1.377    16 H    0.963
     8   6 C    3.980 --     7 C    1.506     3 C    1.291    17 H    0.964
     9   1 H    0.951 --     1 N    0.937
    10   1 H    0.952 --     1 N    0.931
    11   1 H    0.967 --     2 C    0.839
    12   1 H    0.971 --     2 C    0.861
    13   1 H    0.994 --     4 C    0.959
    14   1 H    0.991 --     5 C    0.962
    15   1 H    0.990 --     6 C    0.964
    16   1 H    0.991 --     7 C    0.963
    17   1 H    0.994 --     8 C    0.964
 ---------------------------------------------------------------------------

Topologies differ in total number of bonds
Writing topology from bond orders to xtbtopo.mol

molecular dipole:
                 x           y           z       tot (Debye)
 q only:        4.981       0.008      -2.439
   full:        4.832      -0.000      -2.351      13.657
molecular quadrupole (traceless):
                xx          xy          yy          xz          yz          zz
 q only:       16.342      -4.459     -18.012     -30.315       2.026       1.670
  q+dip:       13.024      -5.290     -16.009     -31.412       1.057       2.984
   full:       15.133      -4.824     -17.352     -29.697       1.569       2.219

           -------------------------------------------------
          |                Geometry Summary                 |
           -------------------------------------------------

      molecular mass/u    :      107.1533213
   center of mass at/Å    :        3.1004675      -0.1036370      -1.9943141
  moments of inertia/u·Å² :        0.1027311E+03   0.3392493E+03   0.4373768E+03
rotational constants/cm⁻¹ :        0.1640947E+00   0.4969099E-01   0.3854259E-01

 * 17 selected distances

     #   Z          #   Z                                           value/Å
     1   7 N        2   6 C                                       1.4013616
     2   6 C        3   6 C                                       1.4846973 (max)
     3   6 C        4   6 C                                       1.4028597
     4   6 C        5   6 C                                       1.3772812
     5   6 C        6   6 C                                       1.3988792
     6   6 C        7   6 C                                       1.3940992
     3   6 C        8   6 C                                       1.4122905
     7   6 C        8   6 C                                       1.3762190
     1   7 N        9   1 H                                       1.0071934
     1   7 N       10   1 H                                       1.0069805 (min)
     2   6 C       11   1 H                                       1.1124430
     2   6 C       12   1 H                                       1.1070404
     4   6 C       13   1 H                                       1.0790191
     5   6 C       14   1 H                                       1.0789392
     6   6 C       15   1 H                                       1.0791365
     7   6 C       16   1 H                                       1.0785666
     8   6 C       17   1 H                                       1.0797546

 * 4 distinct bonds (by element types)

   Z      Z             #   av. dist./Å        max./Å        min./Å
   1 H    6 C           7     1.0878428     1.1124430     1.0785666
   6 C    6 C           7     1.4066180     1.4846973     1.3762190
   1 H    7 N           2     1.0070870     1.0071934     1.0069805
   6 C    7 N           1     1.4013616     1.4013616     1.4013616


optimized geometry written to: xtbopt.xyz


           -------------------------------------------------
          | TOTAL ENERGY              -21.995456852926 Eh   |
          | GRADIENT NORM               0.000194664938 Eh/α |
          | HOMO-LUMO GAP               4.215570556818 eV   |
           -------------------------------------------------

------------------------------------------------------------------------
 * finished run on 2026/09/29 at 15:12:08.329     
------------------------------------------------------------------------
 total:
 * wall-time:     0 d,  0 h,  0 min,  0.632 sec
 *  cpu-time:     0 d,  0 h,  0 min,  0.453 sec
 * ratio c/w:     0.716 speedup
 SCF:
 * wall-time:     0 d,  0 h,  0 min,  0.020 sec
 *  cpu-time:     0 d,  0 h,  0 min,  0.017 sec
 * ratio c/w:     0.829 speedup
 ANC optimizer:
 * wall-time:     0 d,  0 h,  0 min,  0.601 sec
 *  cpu-time:     0 d,  0 h,  0 min,  0.427 sec
 * ratio c/w:     0.711 speedup

