17
 energy: -21.995456852926 gnorm: 0.000194664938 xtb: 6.7.1 (edcfbbe)
N            1.58461490751856        0.97322473722584        0.18566391418619
C            2.25660969608050       -0.19716009893419       -0.19174336006299
C            2.91420891689034       -0.21838522640839       -1.52269733311325
C            3.10545991403564        0.93359872291308       -2.30011044277017
C            3.74458511947993        0.84903267634861       -3.51718504533730
C            4.19666396068576       -0.38640648895739       -3.99276608174091
C            4.02286494284172       -1.53668980817306       -3.22455098084225
C            3.39090111751810       -1.45738083954343       -2.00458781058582
H            1.17560087028229        1.02312339967722        1.10471559002320
H            1.20494113991704        1.58982670317912       -0.51409279494081
H            1.58245171480582       -1.08039771413507       -0.13759884861571
H            3.01472716799906       -0.43928497243550        0.57778350812158
H            2.79151768677215        1.89787814636547       -1.93148121671743
H            3.90958044290657        1.74032717803389       -4.10240319972794
H            4.68829821460233       -0.44565013318028       -4.95157848173059
H            4.37839310281413       -2.48738283619541       -3.58936348906129
H            3.24898045010646       -2.34847879002621       -1.41156779849838
