13

C          0.92482       -0.04807       -0.08504
C          2.43728        0.06400        0.01977
N          3.10649       -1.01224       -0.76870
C          2.94384        1.42325       -0.49081
O          2.38769        2.49700       -0.33512
O          4.13968        1.28493       -1.12635
H          0.57614       -1.01823        0.28465
H          0.58145        0.07026       -1.11878
H          0.43828        0.73113        0.51179
H          2.75624       -0.02744        1.06330
H          2.67200       -1.04046       -1.69844
H          2.84563       -1.91002       -0.35079
H          4.33682        0.31495       -1.12053
