17

N          1.26019        0.81604       -0.06099
C          2.47356        0.00882       -0.07082
C          3.03852       -0.13245       -1.46171
C          3.44528        1.00132       -2.18153
C          4.00025        0.87395       -3.45554
C          4.15790       -0.38864       -4.02393
C          3.75027       -1.52225       -3.32317
C          3.19050       -1.39601       -2.04940
H          0.87426        0.82663        0.88046
H          0.56611        0.36606       -0.65511
H          2.24952       -0.97758        0.35179
H          3.23007        0.46814        0.57578
H          3.32216        1.99113       -1.74604
H          4.30838        1.76081       -4.00318
H          4.59618       -0.48811       -5.01301
H          3.86944       -2.50655       -3.76831
H          2.87792       -2.29184       -1.51897
