19

C          2.57841       -1.52570        0.01798
C          1.63618       -0.37747        0.00153
C          1.96967        0.96251       -0.00671
N          0.81196        1.69356       -0.00440
C         -0.27972        0.85804       -0.00046
C         -1.64712        1.15888        0.00749
C         -2.54585        0.08816        0.00013
C         -2.09287       -1.22879       -0.01356
C         -0.72178       -1.51112       -0.01386
C          0.20628       -0.44986       -0.00603
H          3.61913       -1.18683       -0.00620
H          2.41188       -2.17204       -0.84969
H          2.43734       -2.12022        0.92621
H          2.93199        1.45612       -0.00999
H          0.76043        2.70253       -0.00632
H         -2.00319        2.18366        0.01818
H         -3.61498        0.28784        0.00420
H         -2.80847       -2.04679       -0.02292
H         -0.37824       -2.54122       -0.02257
